672
Lattice="41.8176381058 -2.0586813128 -4.6399146469e-09 -47.0889188526 36.8995859264 9.1518885284e-09 2.5994794061e-10 -2.8016760977e-10 2.4671121488" Origin="0.0 -0.5 0.0" Properties=species:S:1:pos:R:3
C -0.89138929 -0.95431429 0.0
C -1.14130875 -0.11866466 1.23355607
C -2.57307421 0.3634885 1.23355607
C -2.82300011 1.19913128 0.0
C -4.25476727 1.68128202 0.0
C -4.50470044 2.51691939 1.23355607
C -5.93646918 2.99906869 1.23355607
C -6.18640779 3.83470258 0.0
C -7.61817711 4.31685225 0.0
C -7.86811808 5.15248429 1.23355607
C -9.29988746 5.63463383 1.23355607
C -9.54982698 6.47026578 0.0
C -10.98159532 6.95241529 0.0
C -11.23152967 7.7880491 1.23355607
C -12.66329642 8.27019848 1.23355607
C -12.91322386 9.10583583 0.0
C 1.47229082 -0.24733562 0.0
C 1.22236733 0.58830931 1.23355607
C -0.20939891 1.07046157 1.23355607
C -0.45932956 1.90610073 0.0
C -1.89109751 2.38825146 0.0
C -2.14103467 3.22388627 1.23355607
C -3.57280402 3.70603558 1.23355607
C -3.82274463 4.54166787 0.0
C -5.2545143 5.02381632 0.0
C -5.50445452 5.85944808 1.23355607
C -6.93622341 6.34159692 1.23355607
C -7.1861598 7.17722979 0.0
C -8.61792722 7.65937935 0.0
C -8.86785712 8.49501536 1.23355607
C -10.29962264 8.97716602 1.23355607
C -10.54954557 9.81280692 0.0
C 5.51765604 -0.85815944 1.23355607
C 5.26773461 -0.02251249 0.0
C 3.83596836 0.45963899 0.0
C 3.58604004 1.29527973 1.23355607
C 2.15427267 1.77743088 1.23355607
C 1.90433757 2.61306706 0.0
C 0.47256884 3.09521749 0.0
C 0.22262895 3.93085054 1.23355607
C -1.20914056 4.41300022 1.23355607
C -1.45908152 5.24863195 0.0
C -2.89085072 5.73078083 0.0
C -3.14078867 6.56641313 1.23355607
C -4.57255669 7.04856161 1.23355607
C -4.82248887 7.88419635 0.0
C -6.25425534 8.36634546 0.0
C -6.50418068 9.2019844 1.23355607
C 0.54037563 -1.43647024 0.0
C 0.79029234 -2.2721277 1.23355607
C 2.22205859 -2.75428698 1.23355607
C 2.47197808 -3.58995306 0.0
C 3.90374767 -4.07211682 0.0
C 4.15367668 -4.90779227 1.23355607
C 5.58545193 -5.38996165 1.23355607
C 5.83539756 -6.22564634 0.0
C 7.26718063 -6.70782242 0.0
C 7.51714844 -7.54351587 1.23355607
C 8.94894055 -8.02569929 1.23355607
C 9.19893348 -8.86140057 0.0
C 10.63073508 -9.34359031 0.0
C 10.88075285 -10.179298 1.23355607
C 12.31256284 -10.66149353 1.23355607
C 12.56260159 -11.49720575 0.0
C 13.99441809 -11.97940468 -1.0e-08
C 14.24447074 -12.81511932 1.23355607
C 15.67629058 -13.29731996 1.23355607
C 15.92634779 -14.13303487 -1.0e-08
C 17.35816725 -14.61523555 -1.0e-08
C 17.60821893 -15.4509485 1.23355607
C 19.04003454 -15.93314666 1.23355607
C 19.29007155 -16.76885543 -1.0e-08
C 20.72188037 -17.25104906 -1.0e-08
C 20.97189597 -18.08675167 1.23355607
C 22.40369612 -18.56893873 1.23355607
C 22.65368672 -19.40463362 -1.0e-08
C 24.08547745 -19.88681316 -1.0e-08
C 24.33544324 -20.72249914 1.23355607
C 25.76722492 -21.20467165 1.23355607
C 26.01716942 -22.04034811 -1.0e-08
C 27.44894357 -22.52251399 -1.0e-08
C 27.69887233 -23.35818102 1.23355607
C 29.13064064 -23.840342 1.23355607
C 29.38056045 -24.67600007 -1.0e-08
C 30.81232573 -25.15815617 -1.0e-08
C 31.06224362 -25.99380581 1.23355607
C 32.49400841 -26.47595755 1.23355607
C 32.74392963 -27.31160017 -1.0e-08
C 2.90405599 -0.72948956 0.0
C 3.15397415 -1.56514141 1.23355607
C 4.58573951 -2.04729744 1.23355607
C 4.83565631 -2.88295763 0.0
C 6.26742337 -3.36511777 0.0
C 6.51734506 -4.20078704 1.23355607
C 7.94911627 -4.68295272 1.23355607
C 8.19905012 -5.51863127 0.0
C 9.63082785 -6.00080343 0.0
C 9.88078036 -6.83649113 1.23355607
C 11.31256653 -7.31866981 1.23355607
C 11.56254244 -8.15436599 0.0
C 12.99433784 -8.63655179 0.0
C 13.24433918 -9.4722553 1.23355607
C 14.67614399 -9.95444685 1.23355607
C 14.92616929 -10.79015608 0.0
C 16.35798202 -11.27235263 -1.0e-08
C 16.60802626 -12.10806578 1.23355607
C 18.0398443 -12.59026621 1.23355607
C 18.28989951 -13.42598114 -1.0e-08
C 19.7217197 -13.9081828 -1.0e-08
C 19.9717761 -14.7438973 1.23355607
C 21.40359477 -15.22609785 1.23355607
C 21.65364244 -16.06180957 -1.0e-08
C 23.08545636 -16.54400615 -1.0e-08
C 23.33548679 -17.37971297 1.23355607
C 24.76729316 -17.8619039 1.23355607
C 25.01730052 -18.69760405 -1.0e-08
C 26.44909762 -19.17978862 -1.0e-08
C 26.69907978 -20.01548062 1.23355607
C 28.13086742 -20.49765806 1.23355607
C 28.38082567 -21.33334095 -1.0e-08
C 29.81260435 -21.81551193 -1.0e-08
C 30.06254273 -22.65118541 1.23355607
C 31.49431438 -23.13334968 1.23355607
C 31.74423929 -23.96901359 -1.0e-08
C 33.17600663 -24.45117143 -1.0e-08
C 33.42592525 -25.28682629 1.23355607
C 34.85769026 -25.76898027 1.23355607
C 35.10760873 -26.60462739 -1.0e-08
C 6.94942123 -1.34031347 1.23355607
C 7.19933815 -2.17596814 0.0
C 8.63110371 -2.65812607 0.0
C 8.88102136 -3.49378931 1.23355607
C 10.31278959 -3.9759519 1.23355607
C 10.56271467 -4.8116242 0.0
C 11.99448801 -5.29379204 0.0
C 12.24442739 -6.1294736 1.23355607
C 13.67620775 -6.61164794 1.23355607
C 13.92616759 -7.44733854 0.0
C 15.35795682 -7.92951928 0.0
C 15.60794119 -8.76521797 1.23355607
C 17.03973989 -9.2474054 1.23355607
C 17.28974961 -10.08311101 -1.0e-08
C 18.72155708 -10.56530494 -1.0e-08
C 18.97158948 -11.40101579 1.23355607
C 20.40340418 -11.88321417 1.23355607
C 20.65345313 -12.71892831 -1.0e-08
C 22.08527214 -13.20112942 -1.0e-08
C 22.33532892 -14.03684455 1.23355607
C 23.76714899 -14.51904541 1.23355607
C 24.01720361 -15.35475922 -1.0e-08
C 25.44902103 -15.8369578 -1.0e-08
C 25.69906381 -16.67266816 1.23355607
C 27.13087517 -17.15486295 1.23355607
C 27.38089841 -17.99056785 -1.0e-08
C 28.81270151 -18.472757 -1.0e-08
C 29.06270068 -19.30845463 1.23355607
C 30.49449428 -19.79063732 1.23355607
C 30.74446821 -20.62632648 -1.0e-08
C 32.17625242 -21.10850171 -1.0e-08
C 32.42620339 -21.94418154 1.23355607
C 33.85797965 -22.42634909 1.23355607
C 34.10791294 -23.26201918 -1.0e-08
C 35.53968308 -23.74418079 -1.0e-08
C 35.78960532 -24.57984157 1.23355607
C 37.22137156 -25.06199848 1.23355607
C 37.47128941 -25.89765092 -1.0e-08
C 38.90305376 -26.37980509 -1.0e-08
C 39.15297332 -27.21545017 1.23355607
C 9.56302024 -1.46898462 0.0
C 9.31310077 -0.63333499 1.23355607
C 7.88133531 -0.15118183 1.23355607
C 7.63140941 0.68446096 0.0
C 6.19964225 1.16661169 0.0
C 5.94970909 2.00224906 1.23355607
C 4.51794035 2.48439837 1.23355607
C 4.26800174 3.32003225 0.0
C 2.83623242 3.80218192 0.0
C 2.58629144 4.63781396 1.23355607
C 1.15452206 5.1199635 1.23355607
C 0.90458255 5.95559545 0.0
C -0.5271858 6.43774496 0.0
C -0.77712014 7.27337877 1.23355607
C -2.2088869 7.75552815 1.23355607
C -2.45881433 8.5911655 0.0
C 11.92670034 -0.76200595 0.0
C 11.67677685 0.07363899 1.23355607
C 10.24501062 0.55579124 1.23355607
C 9.99507996 1.3914304 0.0
C 8.56331201 1.87358113 0.0
C 8.31337486 2.70921594 1.23355607
C 6.88160551 3.19136525 1.23355607
C 6.6316649 4.02699755 0.0
C 5.19989522 4.50914599 0.0
C 4.94995501 5.34477775 1.23355607
C 3.51818612 5.8269266 1.23355607
C 3.26824973 6.66255947 0.0
C 1.83648231 7.14470903 0.0
C 1.58655241 7.98034504 1.23355607
C 0.15478689 8.46249569 1.23355607
C -0.09513604 9.29813659 0.0
C 15.97206557 -1.37282977 1.23355607
C 15.72214414 -0.53718282 0.0
C 14.29037789 -0.05503133 0.0
C 14.04044957 0.7806094 1.23355607
C 12.6086822 1.26276055 1.23355607
C 12.3587471 2.09839673 0.0
C 10.92697837 2.58054716 0.0
C 10.67703847 3.41618022 1.23355607
C 9.24526897 3.89832989 1.23355607
C 8.99532801 4.73396162 0.0
C 7.5635588 5.2161105 0.0
C 7.31362085 6.05174281 1.23355607
C 5.88185284 6.53389128 1.23355607
C 5.63192066 7.36952602 0.0
C 4.20015419 7.85167514 0.0
C 3.95022885 8.68731407 1.23355607
C 10.99478515 -1.95114057 0.0
C 11.24470187 -2.78679803 1.23355607
C 12.67646812 -3.2689573 1.23355607
C 12.92638761 -4.10462339 0.0
C 14.35815719 -4.58678715 0.0
C 14.60808621 -5.4224626 1.23355607
C 16.03986146 -5.90463198 1.23355607
C 16.28980708 -6.74031667 0.0
C 17.72159016 -7.22249275 0.0
C 17.97155797 -8.0581862 1.23355607
C 19.40335007 -8.54036961 1.23355607
C 19.65334301 -9.37607089 -1.0e-08
C 21.0851446 -9.85826064 -1.0e-08
C 21.33516238 -10.69396833 1.23355607
C 22.76697237 -11.17616386 1.23355607
C 23.01701112 -12.01187608 -1.0e-08
C 24.44882762 -12.494075 -1.0e-08
C 24.69888027 -13.32978964 1.23355607
C 26.13070011 -13.81199028 1.23355607
C 26.38075732 -14.64770519 -1.0e-08
C 27.81257677 -15.12990588 -1.0e-08
C 28.06262845 -15.96561882 1.23355607
C 29.49444406 -16.44781699 1.23355607
C 29.74448108 -17.28352576 -1.0e-08
C 31.1762899 -17.76571939 -1.0e-08
C 31.4263055 -18.601422 1.23355607
C 32.85810565 -19.08360906 1.23355607
C 33.10809625 -19.91930395 -1.0e-08
C 34.53988697 -20.40148349 -1.0e-08
C 34.78985276 -21.23716947 1.23355607
C 36.22163445 -21.71934198 1.23355607
C 36.47157895 -22.55501844 -1.0e-08
C 37.9033531 -23.03718431 -1.0e-08
C 38.15328186 -23.87285135 1.23355607
C 39.58505017 -24.35501233 1.23355607
C 39.83496997 -25.1906704 -1.0e-08
C 41.26673526 -25.67282649 -1.0e-08
C 41.51665315 -26.50847614 1.23355606
C 42.94841793 -26.99062788 1.23355606
C 43.19833916 -27.8262705 -1.0e-08
C 13.35846552 -1.24415988 0.0
C 13.60838367 -2.07981174 1.23355607
C 15.04014904 -2.56196776 1.23355607
C 15.29006584 -3.39762796 0.0
C 16.72183289 -3.8797881 0.0
C 16.97175458 -4.71545737 1.23355607
C 18.4035258 -5.19762305 1.23355607
C 18.65345965 -6.0333016 0.0
C 20.08523737 -6.51547376 -1.0e-08
C 20.33518988 -7.35116145 1.23355607
C 21.76697606 -7.83334014 1.23355607
C 22.01695196 -8.66903632 -1.0e-08
C 23.44874737 -9.15122212 -1.0e-08
C 23.69874871 -9.98692563 1.23355607
C 25.13055351 -10.46911718 1.23355607
C 25.38057882 -11.3048264 -1.0e-08
C 26.81239155 -11.78702296 -1.0e-08
C 27.06243578 -12.6227361 1.23355607
C 28.49425382 -13.10493654 1.23355607
C 28.74430904 -13.94065147 -1.0e-08
C 30.17612923 -14.42285313 -1.0e-08
C 30.42618563 -15.25856763 1.23355607
C 31.8580043 -15.74076818 1.23355607
C 32.10805197 -16.5764799 -1.0e-08
C 33.53986589 -17.05867648 -1.0e-08
C 33.78989631 -17.8943833 1.23355607
C 35.22170269 -18.37657423 1.23355607
C 35.47171005 -19.21227438 -1.0e-08
C 36.90350715 -19.69445895 -1.0e-08
C 37.1534893 -20.53015095 1.23355607
C 38.58527695 -21.01232839 1.23355607
C 38.8352352 -21.84801128 -1.0e-08
C 40.26701388 -22.33018226 -1.0e-08
C 40.51695226 -23.16585574 1.23355607
C 41.9487239 -23.64802001 1.23355607
C 42.19864882 -24.48368392 -1.0e-08
C 43.63041615 -24.96584176 -1.0e-08
C 43.88033477 -25.80149662 1.23355606
C 45.31209979 -26.2836506 1.23355606
C 45.56201825 -27.11929772 -1.0e-08
C 17.40383075 -1.8549838 1.23355607
C 17.65374768 -2.69063847 0.0
C 19.08551323 -3.1727964 0.0
C 19.33543088 -4.00845964 1.23355607
C 20.76719912 -4.49062222 1.23355607
C 21.0171242 -5.32629453 0.0
C 22.44889753 -5.80846237 -1.0e-08
C 22.69883691 -6.64414393 1.23355607
C 24.13061728 -7.12631827 1.23355607
C 24.38057711 -7.96200887 -1.0e-08
C 25.81236635 -8.44418961 -1.0e-08
C 26.06235072 -9.2798883 1.23355607
C 27.49414942 -9.76207573 1.23355607
C 27.74415914 -10.59778134 -1.0e-08
C 29.17596661 -11.07997527 -1.0e-08
C 29.425999 -11.91568612 1.23355607
C 30.85781371 -12.3978845 1.23355607
C 31.10786266 -13.23359863 -1.0e-08
C 32.53968167 -13.71579975 -1.0e-08
C 32.78973844 -14.55151487 1.23355607
C 34.22155851 -15.03371574 1.23355607
C 34.47161314 -15.86942954 -1.0e-08
C 35.90343055 -16.35162813 -1.0e-08
C 36.15347334 -17.18733849 1.23355607
C 37.58528469 -17.66953328 1.23355607
C 37.83530794 -18.50523818 -1.0e-08
C 39.26711104 -18.98742732 -1.0e-08
C 39.51711021 -19.82312496 1.23355607
C 40.9489038 -20.30530764 1.23355607
C 41.19887773 -21.14099681 -1.0e-08
C 42.63066194 -21.62317204 -1.0e-08
C 42.88061291 -22.45885187 1.23355607
C 44.31238917 -22.94101942 1.23355606
C 44.56232247 -23.77668951 -1.0e-08
C 45.99409261 -24.25885112 -1.0e-08
C 46.24401485 -25.09451189 1.23355606
C 47.67578109 -25.57666881 1.23355606
C 47.92569894 -26.41232125 -1.0e-08
C 49.35746329 -26.89447541 -1.0e-08
C 49.60738285 -27.7301205 1.23355606
C 20.01742976 -1.98365494 0.0
C 19.7675103 -1.14800532 1.23355607
C 18.33574484 -0.66585216 1.23355607
C 18.08581894 0.16979063 0.0
C 16.65405178 0.65194136 0.0
C 16.40411862 1.48757874 1.23355607
C 14.97234987 1.96972804 1.23355607
C 14.72241127 2.80536192 0.0
C 13.29064194 3.28751159 0.0
C 13.04070097 4.12314363 1.23355607
C 11.60893159 4.60529318 1.23355607
C 11.35899208 5.44092512 0.0
C 9.92722373 5.92307463 0.0
C 9.67728938 6.75870844 1.23355607
C 8.24552263 7.24085782 1.23355607
C 7.99559519 8.07649517 0.0
C 22.38110987 -1.27667627 0.0
C 22.13118638 -0.44103134 1.23355607
C 20.69942015 0.04112091 1.23355607
C 20.44948949 0.87676007 0.0
C 19.01772154 1.35891081 0.0
C 18.76778438 2.19454562 1.23355607
C 17.33601504 2.67669492 1.23355607
C 17.08607442 3.51232722 0.0
C 15.65430475 3.99447567 0.0
C 15.40436453 4.83010742 1.23355607
C 13.97259565 5.31225627 1.23355607
C 13.72265925 6.14788914 0.0
C 12.29089183 6.6300387 0.0
C 12.04096194 7.46567471 1.23355607
C 10.60919642 7.94782537 1.23355607
C 10.35927349 8.78346626 0.0
C 26.42647509 -1.8875001 1.23355607
C 26.17655367 -1.05185315 -1.0e-08
C 24.74478742 -0.56970166 0.0
C 24.49485909 0.26593907 1.23355607
C 23.06309172 0.74809022 1.23355607
C 22.81315662 1.5837264 0.0
C 21.3813879 2.06587684 0.0
C 21.131448 2.90150989 1.23355607
C 19.69967849 3.38365956 1.23355607
C 19.44973753 4.21929129 0.0
C 18.01796833 4.70144017 0.0
C 17.76803038 5.53707248 1.23355607
C 16.33626236 6.01922095 1.23355607
C 16.08633018 6.85485569 0.0
C 14.65456371 7.33700481 0.0
C 14.40463837 8.17264374 1.23355607
C 21.44919468 -2.4658109 0.0
C 21.69911139 -3.30146836 1.23355607
C 23.13087765 -3.78362763 1.23355607
C 23.38079714 -4.61929372 -1.0e-08
C 24.81256672 -5.10145747 -1.0e-08
C 25.06249573 -5.93713292 1.23355607
C 26.49427098 -6.41930231 1.23355607
C 26.74421661 -7.25498699 -1.0e-08
C 28.17599968 -7.73716308 -1.0e-08
C 28.42596749 -8.57285653 1.23355607
C 29.8577596 -9.05503994 1.23355607
C 30.10775253 -9.89074122 -1.0e-08
C 31.53955413 -10.37293097 -1.0e-08
C 31.78957191 -11.20863866 1.23355607
C 33.22138189 -11.69083419 1.23355607
C 33.47142065 -12.52654641 -1.0e-08
C 34.90323715 -13.00874533 -1.0e-08
C 35.15328979 -13.84445997 1.23355607
C 36.58510964 -14.32666061 1.23355607
C 36.83516685 -15.16237552 -1.0e-08
C 38.2669863 -15.64457621 -1.0e-08
C 38.51703798 -16.48028915 1.23355607
C 39.94885359 -16.96248732 1.23355607
C 40.19889061 -17.79819609 -1.0e-08
C 41.63069943 -18.28038972 -1.0e-08
C 41.88071503 -19.11609233 1.23355607
C 43.31251518 -19.59827939 1.23355607
C 43.56250578 -20.43397428 -1.0e-08
C 44.9942965 -20.91615382 -1.0e-08
C 45.24426229 -21.7518398 1.23355607
C 46.67604397 -22.23401231 1.23355606
C 46.92598848 -23.06968877 -1.0e-08
C 48.35776263 -23.55185464 -1.0e-08
C 48.60769139 -24.38752168 1.23355606
C 50.03945969 -24.86968266 1.23355606
C 50.2893795 -25.70534073 -1.0e-08
C 51.72114479 -26.18749682 -1.0e-08
C 51.97106267 -27.02314647 1.23355606
C 53.40282746 -27.5052982 1.23355606
C 53.65274869 -28.34094083 -1.0e-08
C 23.81287504 -1.75883021 0.0
C 24.0627932 -2.59448207 1.23355607
C 25.49455856 -3.07663809 1.23355607
C 25.74447536 -3.91229828 -1.0e-08
C 27.17624242 -4.39445842 -1.0e-08
C 27.42616411 -5.2301277 1.23355607
C 28.85793532 -5.71229338 1.23355607
C 29.10786917 -6.54797193 -1.0e-08
C 30.5396469 -7.03014409 -1.0e-08
C 30.78959941 -7.86583178 1.23355607
C 32.22138558 -8.34801047 1.23355607
C 32.47136149 -9.18370665 -1.0e-08
C 33.90315689 -9.66589245 -1.0e-08
C 34.15315824 -10.50159596 1.23355607
C 35.58496304 -10.98378751 1.23355607
C 35.83498835 -11.81949673 -1.0e-08
C 37.26680108 -12.30169329 -1.0e-08
C 37.51684531 -13.13740643 1.23355607
C 38.94866335 -13.61960686 1.23355607
C 39.19871856 -14.4553218 -1.0e-08
C 40.63053876 -14.93752346 -1.0e-08
C 40.88059516 -15.77323796 1.23355607
C 42.31241382 -16.25543851 1.23355607
C 42.5624615 -17.09115022 -1.0e-08
C 43.99427541 -17.57334681 -1.0e-08
C 44.24430584 -18.40905363 1.23355607
C 45.67611222 -18.89124456 1.23355607
C 45.92611957 -19.72694471 -1.0e-08
C 47.35791667 -20.20912927 -1.0e-08
C 47.60789883 -21.04482128 1.23355606
C 49.03968647 -21.52699872 1.23355606
C 49.28964472 -22.36268161 -1.0e-08
C 50.7214234 -22.84485259 -1.0e-08
C 50.97136179 -23.68052607 1.23355606
C 52.40313343 -24.16269034 1.23355606
C 52.65305835 -24.99835425 -1.0e-08
C 54.08482568 -25.48051209 -1.0e-08
C 54.3347443 -26.31616695 1.23355606
C 55.76650931 -26.79832093 1.23355606
C 56.01642778 -27.63396804 -1.0e-08
C 27.85824028 -2.36965413 1.23355607
C 28.1081572 -3.2053088 -1.0e-08
C 29.53992276 -3.68746673 -1.0e-08
C 29.78984041 -4.52312997 1.23355607
C 31.22160865 -5.00529255 1.23355607
C 31.47153372 -5.84096486 -1.0e-08
C 32.90330706 -6.3231327 -1.0e-08
C 33.15324644 -7.15881426 1.23355607
C 34.58502681 -7.6409886 1.23355607
C 34.83498664 -8.47667919 -1.0e-08
C 36.26677587 -8.95885994 -1.0e-08
C 36.51676025 -9.79455863 1.23355607
C 37.94855894 -10.27674606 1.23355607
C 38.19856866 -11.11245167 -1.0e-08
C 39.63037614 -11.5946456 -1.0e-08
C 39.88040853 -12.43035645 1.23355607
C 41.31222323 -12.91255483 1.23355607
C 41.56227219 -13.74826896 -1.0e-08
C 42.99409119 -14.23047008 -1.0e-08
C 43.24414797 -15.0661852 1.23355607
C 44.67596804 -15.54838607 1.23355607
C 44.92602266 -16.38409987 -1.0e-08
C 46.35784008 -16.86629846 -1.0e-08
C 46.60788287 -17.70200881 1.23355607
C 48.03969422 -18.18420361 1.23355607
C 48.28971746 -19.0199085 -1.0e-08
C 49.72152056 -19.50209765 -1.0e-08
C 49.97151974 -20.33779529 1.23355606
C 51.40331333 -20.81997797 1.23355606
C 51.65328726 -21.65566714 -1.0e-08
C 53.08507147 -22.13784237 -1.0e-08
C 53.33502244 -22.9735222 1.23355606
C 54.7667987 -23.45568975 1.23355606
C 55.01673199 -24.29135984 -1.0e-08
C 56.44850214 -24.77352145 -1.0e-08
C 56.69842437 -25.60918222 1.23355606
C 58.13019061 -26.09133913 1.23355606
C 58.38010847 -26.92699158 -1.0e-08
C 59.81187281 -27.40914574 -1.0e-08
C 60.06179237 -28.24479083 1.23355606
C 30.47183929 -2.49832527 -1.0e-08
C 30.22191983 -1.66267564 1.23355607
C 28.79015436 -1.18052248 1.23355607
C 28.54022847 -0.3448797 -1.0e-08
C 27.10846131 0.13727103 -1.0e-08
C 26.85852814 0.97290841 1.23355607
C 25.4267594 1.45505771 1.23355607
C 25.17682079 2.29069159 0.0
C 23.74505147 2.77284126 0.0
C 23.4951105 3.6084733 1.23355607
C 22.06334112 4.09062285 1.23355607
C 21.8134016 4.92625479 0.0
C 20.38163326 5.40840431 0.0
C 20.13169891 6.24403812 1.23355607
C 18.69993216 6.72618749 1.23355607
C 18.45000472 7.56182485 0.0
C 32.8355194 -1.7913466 -1.0e-08
C 32.58559591 -0.95570167 1.23355607
C 31.15382967 -0.47354941 1.23355607
C 30.90389902 0.36208975 -1.0e-08
C 29.47213107 0.84424048 -1.0e-08
C 29.22219391 1.67987529 1.23355607
C 27.79042456 2.16202459 1.23355607
C 27.54048395 2.99765689 0.0
C 26.10871428 3.47980534 0.0
C 25.85877406 4.3154371 1.23355607
C 24.42700517 4.79758594 1.23355607
C 24.17706878 5.63321881 0.0
C 22.74530136 6.11536837 0.0
C 22.49537146 6.95100438 1.23355607
C 21.06360594 7.43315504 1.23355607
C 20.81368301 8.26879593 0.0
C 36.88088462 -2.40217043 1.23355607
C 36.63096319 -1.56652348 -1.0e-08
C 35.19919694 -1.08437199 -1.0e-08
C 34.94926862 -0.24873126 1.23355607
C 33.51750125 0.23341989 1.23355607
C 33.26756615 1.06905607 -1.0e-08
C 31.83579742 1.55120651 -1.0e-08
C 31.58585753 2.38683956 1.23355607
C 30.15408802 2.86898923 1.23355607
C 29.90414706 3.70462096 0.0
C 28.47237786 4.18676984 0.0
C 28.22243991 5.02240215 1.23355607
C 26.79067189 5.50455063 1.23355607
C 26.54073971 6.34018536 0.0
C 25.10897324 6.82233448 0.0
C 24.8590479 7.65797341 1.23355607
C 31.90360421 -2.98048123 -1.0e-08
C 32.15352092 -3.81613869 1.23355607
C 33.58528717 -4.29829796 1.23355607
C 33.83520666 -5.13396405 -1.0e-08
C 35.26697625 -5.6161278 -1.0e-08
C 35.51690526 -6.45180325 1.23355607
C 36.94868051 -6.93397264 1.23355607
C 37.19862614 -7.76965732 -1.0e-08
C 38.63040921 -8.25183341 -1.0e-08
C 38.88037702 -9.08752685 1.23355607
C 40.31216913 -9.56971027 1.23355607
C 40.56216206 -10.40541155 -1.0e-08
C 41.99396366 -10.8876013 -1.0e-08
C 42.24398143 -11.72330898 1.23355607
C 43.67579142 -12.20550452 1.23355607
C 43.92583017 -13.04121674 -1.0e-08
C 45.35764667 -13.52341566 -1.0e-08
C 45.60769932 -14.3591303 1.23355607
C 47.03951916 -14.84133094 1.23355607
C 47.28957637 -15.67704585 -1.0e-08
C 48.72139582 -16.15924654 -1.0e-08
C 48.97144751 -16.99495948 1.23355607
C 50.40326312 -17.47715764 1.23355606
C 50.65330013 -18.31286642 -1.0e-08
C 52.08510895 -18.79506004 -1.0e-08
C 52.33512455 -19.63076266 1.23355606
C 53.7669247 -20.11294972 1.23355606
C 54.0169153 -20.9486446 -1.0e-08
C 55.44870603 -21.43082415 -1.0e-08
C 55.69867182 -22.26651012 1.23355606
C 57.1304535 -22.74868264 1.23355606
C 57.380398 -23.5843591 -1.0e-08
C 58.81217215 -24.06652497 -1.0e-08
C 59.06210091 -24.902192 1.23355606
C 60.49386922 -25.38435299 1.23355606
C 60.74378903 -26.22001106 -1.0e-08
C 62.17555431 -26.70216715 -1.0e-08
C 62.4254722 -27.53781679 1.23355606
C 63.85723699 -28.01996853 1.23355606
C 64.10715821 -28.85561116 -1.0e-08
C 34.26728457 -2.27350054 -1.0e-08
C 34.51720273 -3.10915239 1.23355607
C 35.94896809 -3.59130842 1.23355607
C 36.19888489 -4.42696861 -1.0e-08
C 37.63065195 -4.90912875 -1.0e-08
C 37.88057364 -5.74479803 1.23355607
C 39.31234485 -6.22696371 1.23355607
C 39.5622787 -7.06264225 -1.0e-08
C 40.99405643 -7.54481442 -1.0e-08
C 41.24400894 -8.38050211 1.23355607
C 42.67579511 -8.86268079 1.23355607
C 42.92577101 -9.69837698 -1.0e-08
C 44.35756642 -10.18056277 -1.0e-08
C 44.60756776 -11.01626629 1.23355607
C 46.03937257 -11.49845784 1.23355607
C 46.28939787 -12.33416706 -1.0e-08
C 47.7212106 -12.81636361 -1.0e-08
C 47.97125484 -13.65207676 1.23355607
C 49.40307288 -14.13427719 1.23355607
C 49.65312809 -14.96999213 -1.0e-08
C 51.08494828 -15.45219378 -1.0e-08
C 51.33500468 -16.28790829 1.23355606
C 52.76682335 -16.77010883 1.23355606
C 53.01687102 -17.60582055 -1.0e-08
C 54.44868494 -18.08801714 -1.0e-08
C 54.69871537 -18.92372396 1.23355606
C 56.13052174 -19.40591489 1.23355606
C 56.3805291 -20.24161504 -1.0e-08
C 57.8123262 -20.7237996 -1.0e-08
C 58.06230836 -21.55949161 1.23355606
C 59.494096 -22.04166904 1.23355606
C 59.74405425 -22.87735194 -1.0e-08
C 61.17583293 -23.35952292 -1.0e-08
C 61.42577131 -24.1951964 1.23355606
C 62.85754296 -24.67736067 1.23355606
C 63.10746787 -25.51302458 -1.0e-08
C 64.53923521 -25.99518242 -1.0e-08
C 64.78915383 -26.83083728 1.23355606
C 66.22091884 -27.31299126 1.23355606
C 66.47083731 -28.14863837 -1.0e-08
C 38.31264981 -2.88432446 1.23355607
C 38.56256673 -3.71997913 -1.0e-08
C 39.99433229 -4.20213706 -1.0e-08
C 40.24424994 -5.03780029 1.23355607
C 41.67601817 -5.51996288 1.23355607
C 41.92594325 -6.35563519 -1.0e-08
C 43.35771659 -6.83780302 -1.0e-08
C 43.60765597 -7.67348459 1.23355607
C 45.03943633 -8.15565893 1.23355607
C 45.28939617 -8.99134952 -1.0e-08
C 46.7211854 -9.47353026 -1.0e-08
C 46.97116977 -10.30922895 1.23355607
C 48.40296847 -10.79141638 1.23355607
C 48.65297819 -11.62712199 -1.0e-08
C 50.08478566 -12.10931593 -1.0e-08
C 50.33481805 -12.94502678 1.23355607
C 51.76663276 -13.42722516 1.23355607
C 52.01668171 -14.26293929 -1.0e-08
C 53.44850072 -14.74514041 -1.0e-08
C 53.6985575 -15.58085553 1.23355606
C 55.13037757 -16.0630564 1.23355606
C 55.38043219 -16.8987702 -1.0e-08
C 56.81224961 -17.38096879 -1.0e-08
C 57.06229239 -18.21667914 1.23355606
C 58.49410375 -18.69887394 1.23355606
C 58.74412699 -19.53457883 -1.0e-08
C 60.17593009 -20.01676798 -1.0e-08
C 60.42592926 -20.85246562 1.23355606
C 61.85772286 -21.3346483 1.23355606
C 62.10769679 -22.17033747 -1.0e-08
C 63.539481 -22.65251269 -1.0e-08
C 63.78943197 -23.48819252 1.23355606
C 65.22120823 -23.97036008 1.23355606
C 65.47114152 -24.80603017 -1.0e-08
C 66.90291166 -25.28819178 -1.0e-08
C 67.1528339 -26.12385255 1.23355606
C 68.58460014 -26.60600946 1.23355606
C 68.83451799 -27.44166191 -1.0e-08
C 70.26628234 -27.92381607 -1.0e-08
C 70.5162019 -28.75946116 1.23355606
