672
Lattice="46.1643089814 2.1237672899 -4.6228486189e-09 -44.0359043242 38.4114821852 9.0019492743e-09 2.5450556912e-10 -2.7298367681e-10 2.4098017176" Properties=species:S:1:pos:R:3:group:R:1
C -0.9956391 -0.97378595 0.0 100.0
C -1.5109506 -0.50627448 1.20490086 100.0
C -2.56883763 0.39748252 1.20490086 100.0
C -3.08419235 0.86494516 0.0 100.0
C -4.14218023 1.76858302 0.0 100.0
C -4.65756996 2.23600613 1.20490086 100.0
C -5.71563532 3.13955248 1.20490086 100.0
C -6.23105015 3.60694725 0.0 100.0
C -7.28916596 4.51043402 0.0 100.0
C -7.80459482 4.97781295 1.20490086 100.0
C -8.86273168 5.88127485 1.20490086 100.0
C -9.37816284 6.34865118 0.0 100.0
C -10.43629038 7.25212409 0.0 100.0
C -10.951712 7.71951119 1.20490086 100.0
C -12.00980028 8.62303047 1.20490086 100.0
C -12.52520097 9.09044119 0.0 100.0
C 1.80260429 0.11739456 0.0 101.0
C 1.28726315 0.58487254 1.20490086 101.0
C 0.2293065 1.48854731 1.20490086 101.0
C -0.28607258 1.95598243 0.0 101.0
C -1.34411496 2.85955592 0.0 101.0
C -1.8595226 3.3269588 1.20490086 101.0
C -2.91762478 4.23046167 1.20490086 101.0
C -3.43305024 4.69784444 0.0 101.0
C -4.49118344 5.60131066 0.0 101.0
C -5.00661516 6.06868637 1.20490086 101.0
C -6.06474918 6.97215162 1.20490086 101.0
C -6.58017528 7.43953366 0.0 101.0
C -7.63827989 8.34303366 0.0 101.0
C -8.15368877 8.81043513 1.20490086 101.0
C -9.21173509 9.71400398 1.20490086 101.0
C -9.72711597 10.18143708 0.0 101.0
C 6.17403004 -0.16271414 1.20490086 102.0
C 5.65870335 0.30478016 0.0 102.0
C 4.60078037 1.2084947 0.0 102.0
C 4.08541298 1.67594302 1.20490086 102.0
C 3.02739646 2.57954707 1.20490086 102.0
C 2.51199721 3.04695942 0.0 102.0
C 1.45391188 3.95048219 0.0 102.0
C 0.9384911 4.41787024 1.20490086 102.0
C -0.11963507 5.32134476 1.20490086 102.0
C -0.63506602 5.78872134 0.0 102.0
C -1.69320315 6.69218291 0.0 102.0
C -2.20863244 7.15956136 1.20490086 102.0
C -3.26675015 8.06304588 1.20490086 102.0
C -3.78216603 8.53043946 0.0 102.0
C -4.84023484 9.43398174 0.0 102.0
C -5.35562619 9.90140302 1.20490086 102.0
C 0.0621285 -1.87768402 0.0 0.0
C 0.57739062 -2.34525132 1.20490086 0.0
C 1.63502599 -3.24930558 1.20490086 0.0
C 2.150235 -3.71693297 0.0 0.0
C 3.20773182 -4.62115088 0.0 0.0
C 3.72288659 -5.08883967 1.20490086 0.0
C 4.78024544 -5.99322053 1.20490086 0.0
C 5.29534758 -6.46096896 0.0 0.0
C 6.35257603 -7.36550383 0.0 0.0
C 6.86762984 -7.83330705 1.20490086 0.0
C 7.92474218 -8.73797907 1.20490085 0.0
C 8.43975445 -9.2058294 0.0 0.0
C 9.49677101 -10.11061453 0.0 0.0
C 10.01175072 -10.57850182 1.20490085 0.0
C 11.06869693 -11.48337004 1.20490085 0.0
C 11.58365477 -11.95128215 -1.0e-08 0.0
C 12.64055979 -12.85619901 -1.0e-08 0.0
C 13.15550765 -13.32412247 1.20490085 0.0
C 14.21240287 -14.2290509 1.20490085 0.0
C 14.72735314 -14.69697162 -1.0e-08 0.0
C 15.78427048 -15.60187393 -1.0e-08 0.0
C 16.29923543 -16.06977797 1.20490085 0.0
C 17.35620561 -16.97461788 1.20490085 0.0
C 17.87119674 -17.4424922 -1.0e-08 0.0
C 18.92824765 -18.34723677 -1.0e-08 0.0
C 19.44327506 -18.81506993 1.20490085 0.0
C 20.50043027 -19.7196913 1.20490085 0.0
C 21.01550213 -20.18747405 -1.0e-08 0.0
C 22.07277977 -21.09195083 -1.0e-08 0.0
C 22.58790193 -21.55967656 1.20490085 0.0
C 23.64531372 -22.4639949 1.20490085 0.0
C 24.16048946 -22.93165995 -1.0e-08 0.0
C 25.21804027 -23.83581408 -1.0e-08 0.0
C 25.73327013 -24.30341787 1.20490085 0.0
C 26.79095785 -25.2074103 1.20490085 0.0
C 27.30623968 -25.67495531 -1.0e-08 0.0
C 28.3640554 -26.57879653 -1.0e-08 0.0
C 28.87938449 -27.04628812 1.20490085 0.0
C 29.93731309 -27.94999602 1.20490085 0.0
C 30.45268244 -28.41744213 -1.0e-08 0.0
C 2.8604533 -0.78640734 0.0 1.0
C 3.37574891 -1.25393678 1.20490086 1.0
C 4.43347355 -2.15788559 1.20490086 1.0
C 4.94871825 -2.62547259 0.0 1.0
C 6.00630781 -3.52958096 0.0 1.0
C 6.52149872 -3.99722883 1.20490086 1.0
C 7.57894914 -4.90150154 1.20490086 1.0
C 8.09408605 -5.36921056 0.0 1.0
C 9.15140025 -6.27364415 0.0 1.0
C 9.66648568 -6.74141152 1.20490086 1.0
C 10.72367352 -7.64599436 1.20490085 1.0
C 11.23871261 -8.11381427 0.0 1.0
C 12.29579049 -9.01852698 0.0 1.0
C 12.81079081 -9.48639087 1.20490085 1.0
C 13.86778089 -10.39120729 1.20490085 1.0
C 14.38275205 -10.85910428 -1.0e-08 1.0
C 15.43968114 -11.76399271 -1.0e-08 1.0
C 15.9546343 -12.23191015 1.20490085 1.0
C 17.01153251 -13.13683506 1.20490085 1.0
C 17.52647978 -13.60475917 -1.0e-08 1.0
C 18.58337885 -14.50968306 -1.0e-08 1.0
C 19.09833267 -14.97759973 1.20490085 1.0
C 20.15526432 -15.88248515 1.20490085 1.0
C 20.67023678 -16.35038067 -1.0e-08 1.0
C 21.72723096 -17.25519224 -1.0e-08 1.0
C 22.24223315 -17.72305401 1.20490085 1.0
C 23.29931645 -18.62776032 1.20490085 1.0
C 23.81435787 -19.09557758 -1.0e-08 1.0
C 24.87155219 -20.00015278 -1.0e-08 1.0
C 25.38664029 -20.46791711 1.20490085 1.0
C 26.44396167 -21.37234223 1.20490085 1.0
C 26.95910146 -21.84004799 -1.0e-08 1.0
C 28.01655939 -22.74431183 -1.0e-08 1.0
C 28.53175325 -23.21195637 1.20490085 1.0
C 29.58935027 -24.11605592 1.20490085 1.0
C 30.10459783 -24.58363969 -1.0e-08 1.0
C 31.16232953 -25.48758017 -1.0e-08 1.0
C 31.67762775 -25.95510664 1.20490085 1.0
C 32.73548307 -26.8589011 1.20490085 1.0
C 33.25082647 -27.32637653 -1.0e-08 1.0
C 7.23183918 -1.06656315 1.20490086 2.0
C 7.7471183 -1.53411122 0.0 2.0
C 8.80479878 -2.43811219 0.0 2.0
C 9.32002575 -2.90571926 1.20490086 2.0
C 10.37756903 -3.80988228 1.20490086 2.0
C 10.89274183 -4.27755066 0.0 2.0
C 11.95014617 -5.18187779 0.0 2.0
C 12.46526551 -5.64960672 1.20490085 2.0
C 13.52253617 -6.55409175 1.20490085 2.0
C 14.03760545 -7.02187742 0.0 2.0
C 15.09475451 -7.92650606 0.0 2.0
C 15.60977973 -8.39434171 1.20490085 2.0
C 16.66682562 -9.2990922 1.20490085 2.0
C 17.18181507 -9.76696844 -1.0e-08 2.0
C 18.23878164 -10.6718126 -1.0e-08 2.0
C 18.7537455 -11.13971789 1.20490085 2.0
C 19.81066084 -12.04462256 1.20490085 2.0
C 20.32561066 -12.51254379 -1.0e-08 2.0
C 21.38250559 -13.41747256 -1.0e-08 2.0
C 21.89745367 -13.88539576 1.20490085 2.0
C 22.95436013 -14.79031093 1.20490085 2.0
C 23.46931886 -15.25822203 -1.0e-08 2.0
C 24.52626815 -16.16308661 -1.0e-08 2.0
C 25.04124936 -16.63097219 1.20490085 2.0
C 26.09827049 -17.53575192 1.20490085 2.0
C 26.6132848 -18.00359995 -1.0e-08 2.0
C 27.67040294 -18.90826511 -1.0e-08 2.0
C 28.18545921 -19.37606553 1.20490085 2.0
C 29.24269441 -20.28059244 1.20490085 2.0
C 29.75779931 -20.74833774 -1.0e-08 2.0
C 30.81516549 -21.65270994 -1.0e-08 2.0
C 31.33032318 -22.12039543 1.20490085 2.0
C 32.38782754 -23.02460443 1.20490085 2.0
C 32.90303947 -23.49222851 -1.0e-08 2.0
C 33.96068221 -24.39627406 -1.0e-08 2.0
C 34.47594712 -24.8638382 1.20490085 2.0
C 35.53372156 -25.76772819 1.20490085 2.0
C 36.04903558 -26.23523682 -1.0e-08 2.0
C 37.10692858 -27.13898676 -1.0e-08 2.0
C 37.62228542 -27.606447 1.20490085 2.0
C 10.54543814 -0.44284413 0.0 100.0
C 10.03012665 0.02466734 1.20490086 100.0
C 8.97223962 0.92842434 1.20490086 100.0
C 8.4568849 1.39588698 0.0 100.0
C 7.39889701 2.29952485 0.0 100.0
C 6.88350729 2.76694796 1.20490086 100.0
C 5.82544192 3.67049431 1.20490086 100.0
C 5.3100271 4.13788908 0.0 100.0
C 4.25191129 5.04137584 0.0 100.0
C 3.73648243 5.50875477 1.20490086 100.0
C 2.67834557 6.41221667 1.20490086 100.0
C 2.16291441 6.879593 0.0 100.0
C 1.10478687 7.78306591 0.0 100.0
C 0.58936524 8.25045301 1.20490086 100.0
C -0.46872303 9.1539723 1.20490086 100.0
C -0.98412373 9.62138301 0.0 100.0
C 13.34368153 0.64833638 0.0 101.0
C 12.8283404 1.11581437 1.20490086 101.0
C 11.77038375 2.01948913 1.20490086 101.0
C 11.25500467 2.48692425 0.0 101.0
C 10.19696228 3.39049774 0.0 101.0
C 9.68155464 3.85790062 1.20490086 101.0
C 8.62345247 4.7614035 1.20490086 101.0
C 8.108027 5.22878626 0.0 101.0
C 7.04989381 6.13225248 0.0 101.0
C 6.53446209 6.59962819 1.20490086 101.0
C 5.47632807 7.50309344 1.20490086 101.0
C 4.96090196 7.97047548 0.0 101.0
C 3.90279736 8.87397548 0.0 101.0
C 3.38738847 9.34137695 1.20490086 101.0
C 2.32934215 10.24494581 1.20490086 101.0
C 1.81396128 10.7123789 0.0 101.0
C 17.71510729 0.36822768 1.20490086 102.0
C 17.19978059 0.83572198 0.0 102.0
C 16.14185762 1.73943652 0.0 102.0
C 15.62649023 2.20688485 1.20490086 102.0
C 14.56847371 3.1104889 1.20490086 102.0
C 14.05307445 3.57790124 0.0 102.0
C 12.99498913 4.48142401 0.0 102.0
C 12.47956835 4.94881206 1.20490086 102.0
C 11.42144218 5.85228659 1.20490086 102.0
C 10.90601123 6.31966316 0.0 102.0
C 9.84787409 7.22312474 0.0 102.0
C 9.33244481 7.69050318 1.20490086 102.0
C 8.27432709 8.5939877 1.20490086 102.0
C 7.75891121 9.06138128 0.0 102.0
C 6.7008424 9.96492356 0.0 102.0
C 6.18545106 10.43234484 1.20490086 102.0
C 11.60320575 -1.3467422 0.0 0.0
C 12.11846787 -1.8143095 1.20490086 0.0
C 13.17610324 -2.71836376 1.20490086 0.0
C 13.69131224 -3.18599115 0.0 0.0
C 14.74880906 -4.09020905 0.0 0.0
C 15.26396383 -4.55789785 1.20490085 0.0
C 16.32132268 -5.46227871 1.20490085 0.0
C 16.83642482 -5.93002713 0.0 0.0
C 17.89365328 -6.83456201 0.0 0.0
C 18.40870709 -7.30236523 1.20490085 0.0
C 19.46581942 -8.20703724 1.20490085 0.0
C 19.98083169 -8.67488758 -1.0e-08 0.0
C 21.03784826 -9.57967271 -1.0e-08 0.0
C 21.55282796 -10.04756 1.20490085 0.0
C 22.60977417 -10.95242822 1.20490085 0.0
C 23.12473201 -11.42034033 -1.0e-08 0.0
C 24.18163704 -12.32525719 -1.0e-08 0.0
C 24.69658489 -12.79318065 1.20490085 0.0
C 25.75348012 -13.69810908 1.20490085 0.0
C 26.26843038 -14.1660298 -1.0e-08 0.0
C 27.32534772 -15.07093211 -1.0e-08 0.0
C 27.84031268 -15.53883615 1.20490085 0.0
C 28.89728285 -16.44367606 1.20490085 0.0
C 29.41227399 -16.91155038 -1.0e-08 0.0
C 30.46932489 -17.81629495 -1.0e-08 0.0
C 30.9843523 -18.28412811 1.20490085 0.0
C 32.04150752 -19.18874948 1.20490085 0.0
C 32.55657938 -19.65653222 -1.0e-08 0.0
C 33.61385701 -20.56100901 -1.0e-08 0.0
C 34.12897918 -21.02873474 1.20490085 0.0
C 35.18639096 -21.93305308 1.20490085 0.0
C 35.7015667 -22.40071813 -1.0e-08 0.0
C 36.75911751 -23.30487226 -1.0e-08 0.0
C 37.27434737 -23.77247605 1.20490085 0.0
C 38.33203509 -24.67646847 1.20490085 0.0
C 38.84731692 -25.14401348 -1.0e-08 0.0
C 39.90513264 -26.04785471 -1.0e-08 0.0
C 40.42046174 -26.5153463 1.20490085 0.0
C 41.47839033 -27.4190542 1.20490085 0.0
C 41.99375969 -27.8865003 -1.0e-08 0.0
C 14.40153055 -0.25546552 0.0 1.0
C 14.91682615 -0.72299496 1.20490086 1.0
C 15.97455079 -1.62694377 1.20490086 1.0
C 16.4897955 -2.09453077 0.0 1.0
C 17.54738505 -2.99863914 0.0 1.0
C 18.06257597 -3.46628701 1.20490085 1.0
C 19.12002638 -4.37055971 1.20490085 1.0
C 19.6351633 -4.83826874 0.0 1.0
C 20.6924775 -5.74270233 0.0 1.0
C 21.20756293 -6.2104697 1.20490085 1.0
C 22.26475077 -7.11505254 1.20490085 1.0
C 22.77978986 -7.58287244 -1.0e-08 1.0
C 23.83686774 -8.48758516 -1.0e-08 1.0
C 24.35186806 -8.95544905 1.20490085 1.0
C 25.40885813 -9.86026547 1.20490085 1.0
C 25.92382929 -10.32816246 -1.0e-08 1.0
C 26.98075839 -11.23305089 -1.0e-08 1.0
C 27.49571154 -11.70096832 1.20490085 1.0
C 28.55260975 -12.60589323 1.20490085 1.0
C 29.06755702 -13.07381735 -1.0e-08 1.0
C 30.1244561 -13.97874124 -1.0e-08 1.0
C 30.63940992 -14.44665791 1.20490085 1.0
C 31.69634157 -15.35154333 1.20490085 1.0
C 32.21131403 -15.81943884 -1.0e-08 1.0
C 33.2683082 -16.72425042 -1.0e-08 1.0
C 33.78331039 -17.19211219 1.20490085 1.0
C 34.8403937 -18.0968185 1.20490085 1.0
C 35.35543512 -18.56463576 -1.0e-08 1.0
C 36.41262943 -19.46921096 -1.0e-08 1.0
C 36.92771753 -19.93697529 1.20490085 1.0
C 37.98503891 -20.84140041 1.20490085 1.0
C 38.50017871 -21.30910617 -1.0e-08 1.0
C 39.55763664 -22.21337001 -1.0e-08 1.0
C 40.07283049 -22.68101455 1.20490085 1.0
C 41.13042752 -23.58511409 1.20490085 1.0
C 41.64567507 -24.05269787 -1.0e-08 1.0
C 42.70340677 -24.95663835 -1.0e-08 1.0
C 43.218705 -25.42416482 1.20490085 1.0
C 44.27656031 -26.32795928 1.20490085 1.0
C 44.79190371 -26.79543471 -1.0e-08 1.0
C 18.77291642 -0.53562132 1.20490086 2.0
C 19.28819554 -1.0031694 0.0 2.0
C 20.34587602 -1.90717037 0.0 2.0
C 20.86110299 -2.37477744 1.20490085 2.0
C 21.91864627 -3.27894046 1.20490085 2.0
C 22.43381908 -3.74660884 0.0 2.0
C 23.49122342 -4.65093596 0.0 2.0
C 24.00634276 -5.1186649 1.20490085 2.0
C 25.06361341 -6.02314993 1.20490085 2.0
C 25.57868269 -6.4909356 -1.0e-08 2.0
C 26.63583176 -7.39556424 -1.0e-08 2.0
C 27.15085697 -7.86339989 1.20490085 2.0
C 28.20790286 -8.76815038 1.20490085 2.0
C 28.72289231 -9.23602661 -1.0e-08 2.0
C 29.77985888 -10.14087078 -1.0e-08 2.0
C 30.29482274 -10.60877606 1.20490085 2.0
C 31.35173808 -11.51368074 1.20490085 2.0
C 31.8666879 -11.98160197 -1.0e-08 2.0
C 32.92358283 -12.88653074 -1.0e-08 2.0
C 33.43853091 -13.35445394 1.20490085 2.0
C 34.49543737 -14.2593691 1.20490085 2.0
C 35.0103961 -14.72728021 -1.0e-08 2.0
C 36.0673454 -15.63214478 -1.0e-08 2.0
C 36.58232661 -16.10003037 1.20490085 2.0
C 37.63934774 -17.0048101 1.20490085 2.0
C 38.15436204 -17.47265813 -1.0e-08 2.0
C 39.21148019 -18.37732329 -1.0e-08 2.0
C 39.72653646 -18.84512371 1.20490085 2.0
C 40.78377165 -19.74965062 1.20490085 2.0
C 41.29887656 -20.21739591 -1.0e-08 2.0
C 42.35624274 -21.12176812 -1.0e-08 2.0
C 42.87140042 -21.58945361 1.20490085 2.0
C 43.92890478 -22.49366261 1.20490085 2.0
C 44.44411671 -22.96128669 -1.0e-08 2.0
C 45.50175946 -23.86533224 -1.0e-08 2.0
C 46.01702437 -24.33289638 1.20490085 2.0
C 47.07479881 -25.23678637 1.20490085 2.0
C 47.59011282 -25.704295 -1.0e-08 2.0
C 48.64800583 -26.60804494 -1.0e-08 2.0
C 49.16336267 -27.07550518 1.20490085 2.0
C 22.08651539 0.08809769 0.0 100.0
C 21.57120389 0.55560917 1.20490086 100.0
C 20.51331686 1.45936617 1.20490086 100.0
C 19.99796214 1.9268288 0.0 100.0
C 18.93997426 2.83046667 0.0 100.0
C 18.42458453 3.29788978 1.20490086 100.0
C 17.36651917 4.20143613 1.20490086 100.0
C 16.85110434 4.6688309 0.0 100.0
C 15.79298853 5.57231766 0.0 100.0
C 15.27755967 6.03969659 1.20490086 100.0
C 14.21942281 6.94315849 1.20490086 100.0
C 13.70399165 7.41053483 0.0 100.0
C 12.64586411 8.31400774 0.0 100.0
C 12.13044249 8.78139483 1.20490086 100.0
C 11.07235421 9.68491412 1.20490086 100.0
C 10.55695352 10.15232484 0.0 100.0
C 24.88475878 1.1792782 0.0 101.0
C 24.36941764 1.64675619 1.20490086 101.0
C 23.31146099 2.55043095 1.20490086 101.0
C 22.79608191 3.01786608 0.0 101.0
C 21.73803953 3.92143957 0.0 101.0
C 21.22263189 4.38884245 1.20490086 101.0
C 20.16452971 5.29234532 1.20490086 101.0
C 19.64910425 5.75972808 0.0 101.0
C 18.59097105 6.66319431 0.0 101.0
C 18.07553934 7.13057001 1.20490086 101.0
C 17.01740531 8.03403527 1.20490086 101.0
C 16.50197921 8.50141731 0.0 101.0
C 15.44387461 9.40491731 0.0 101.0
C 14.92846572 9.87231878 1.20490086 101.0
C 13.8704194 10.77588763 1.20490086 101.0
C 13.35503852 11.24332072 0.0 101.0
C 29.25618453 0.89916951 1.20490085 102.0
C 28.74085784 1.3666638 0.0 102.0
C 27.68293486 2.27037835 0.0 102.0
C 27.16756747 2.73782667 1.20490085 102.0
C 26.10955096 3.64143072 1.20490086 102.0
C 25.5941517 4.10884306 0.0 102.0
C 24.53606637 5.01236583 0.0 102.0
C 24.02064559 5.47975388 1.20490086 102.0
C 22.96251942 6.38322841 1.20490086 102.0
C 22.44708847 6.85060498 0.0 102.0
C 21.38895134 7.75406656 0.0 102.0
C 20.87352205 8.22144501 1.20490086 102.0
C 19.81540434 9.12492952 1.20490086 102.0
C 19.29998846 9.5923231 0.0 102.0
C 18.24191965 10.49586538 0.0 102.0
C 17.7265283 10.96328666 1.20490086 102.0
C 23.14428299 -0.81580038 0.0 0.0
C 23.65954511 -1.28336768 1.20490085 0.0
C 24.71718048 -2.18742193 1.20490085 0.0
C 25.23238949 -2.65504933 0.0 0.0
C 26.28988631 -3.55926723 0.0 0.0
C 26.80504108 -4.02695603 1.20490085 0.0
C 27.86239993 -4.93133689 1.20490085 0.0
C 28.37750207 -5.39908531 -1.0e-08 0.0
C 29.43473052 -6.30362019 -1.0e-08 0.0
C 29.94978433 -6.7714234 1.20490085 0.0
C 31.00689667 -7.67609542 1.20490085 0.0
C 31.52190894 -8.14394576 -1.0e-08 0.0
C 32.5789255 -9.04873088 -1.0e-08 0.0
C 33.09390521 -9.51661818 1.20490085 0.0
C 34.15085142 -10.4214864 1.20490085 0.0
C 34.66580926 -10.88939851 -1.0e-08 0.0
C 35.72271428 -11.79431537 -1.0e-08 0.0
C 36.23766214 -12.26223883 1.20490085 0.0
C 37.29455736 -13.16716726 1.20490085 0.0
C 37.80950763 -13.63508797 -1.0e-08 0.0
C 38.86642497 -14.53999029 -1.0e-08 0.0
C 39.38138992 -15.00789432 1.20490085 0.0
C 40.4383601 -15.91273424 1.20490085 0.0
C 40.95335123 -16.38060855 -1.0e-08 0.0
C 42.01040214 -17.28535313 -1.0e-08 0.0
C 42.52542955 -17.75318629 1.20490085 0.0
C 43.58258477 -18.65780765 1.20490085 0.0
C 44.09765662 -19.1255904 -1.0e-08 0.0
C 45.15493426 -20.03006719 -1.0e-08 0.0
C 45.67005642 -20.49779292 1.20490085 0.0
C 46.72746821 -21.40211126 1.20490085 0.0
C 47.24264395 -21.86977631 -1.0e-08 0.0
C 48.30019476 -22.77393044 -1.0e-08 0.0
C 48.81542462 -23.24153423 1.20490085 0.0
C 49.87311234 -24.14552665 1.20490085 0.0
C 50.38839417 -24.61307166 -1.0e-08 0.0
C 51.44620989 -25.51691289 -1.0e-08 0.0
C 51.96153898 -25.98440448 1.20490085 0.0
C 53.01946758 -26.88811238 1.20490085 0.0
C 53.53483694 -27.35555848 -1.0e-08 0.0
C 25.94260779 0.2754763 0.0 1.0
C 26.4579034 -0.19205313 1.20490085 1.0
C 27.51562804 -1.09600195 1.20490085 1.0
C 28.03087274 -1.56358894 0.0 1.0
C 29.0884623 -2.46769732 -1.0e-08 1.0
C 29.60365321 -2.93534518 1.20490085 1.0
C 30.66110363 -3.83961789 1.20490085 1.0
C 31.17624054 -4.30732691 -1.0e-08 1.0
C 32.23355475 -5.21176051 -1.0e-08 1.0
C 32.74864017 -5.67952788 1.20490085 1.0
C 33.80582801 -6.58411071 1.20490085 1.0
C 34.3208671 -7.05193062 -1.0e-08 1.0
C 35.37794498 -7.95664334 -1.0e-08 1.0
C 35.8929453 -8.42450723 1.20490085 1.0
C 36.94993538 -9.32932364 1.20490085 1.0
C 37.46490654 -9.79722064 -1.0e-08 1.0
C 38.52183563 -10.70210907 -1.0e-08 1.0
C 39.03678879 -11.1700265 1.20490085 1.0
C 40.093687 -12.07495141 1.20490085 1.0
C 40.60863427 -12.54287553 -1.0e-08 1.0
C 41.66553334 -13.44779941 -1.0e-08 1.0
C 42.18048717 -13.91571609 1.20490085 1.0
C 43.23741881 -14.82060151 1.20490085 1.0
C 43.75239127 -15.28849702 -1.0e-08 1.0
C 44.80938545 -16.1933086 -1.0e-08 1.0
C 45.32438764 -16.66117037 1.20490085 1.0
C 46.38147094 -17.56587668 1.20490085 1.0
C 46.89651236 -18.03369394 -1.0e-08 1.0
C 47.95370668 -18.93826913 -1.0e-08 1.0
C 48.46879478 -19.40603347 1.20490085 1.0
C 49.52611616 -20.31045859 1.20490085 1.0
C 50.04125595 -20.77816435 -1.0e-08 1.0
C 51.09871388 -21.68242818 -1.0e-08 1.0
C 51.61390774 -22.15007273 1.20490085 1.0
C 52.67150476 -23.05417227 1.20490085 1.0
C 53.18675232 -23.52175605 -1.0e-08 1.0
C 54.24448402 -24.42569653 -1.0e-08 1.0
C 54.75978224 -24.893223 1.20490085 1.0
C 55.81763756 -25.79701746 1.20490085 1.0
C 56.33298096 -26.26449289 -1.0e-08 1.0
C 30.31399367 -0.0046795 1.20490085 2.0
C 30.82927279 -0.47222758 0.0 2.0
C 31.88695327 -1.37622855 -1.0e-08 2.0
C 32.40218024 -1.84383562 1.20490085 2.0
C 33.45972352 -2.74799864 1.20490085 2.0
C 33.97489632 -3.21566701 -1.0e-08 2.0
C 35.03230067 -4.11999414 -1.0e-08 2.0
C 35.54742 -4.58772308 1.20490085 2.0
C 36.60469066 -5.49220811 1.20490085 2.0
C 37.11975994 -5.95999378 -1.0e-08 2.0
C 38.176909 -6.86462242 -1.0e-08 2.0
C 38.69193422 -7.33245806 1.20490085 2.0
C 39.74898011 -8.23720856 1.20490085 2.0
C 40.26396956 -8.70508479 -1.0e-08 2.0
C 41.32093613 -9.60992896 -1.0e-08 2.0
C 41.83589999 -10.07783424 1.20490085 2.0
C 42.89281533 -10.98273892 1.20490085 2.0
C 43.40776515 -11.45066014 -1.0e-08 2.0
C 44.46466008 -12.35558892 -1.0e-08 2.0
C 44.97960816 -12.82351212 1.20490085 2.0
C 46.03651462 -13.72842728 1.20490085 2.0
C 46.55147335 -14.19633839 -1.0e-08 2.0
C 47.60842264 -15.10120296 -1.0e-08 2.0
C 48.12340385 -15.56908855 1.20490085 2.0
C 49.18042498 -16.47386828 1.20490085 2.0
C 49.69543929 -16.94171631 -1.0e-08 2.0
C 50.75255743 -17.84638146 -1.0e-08 2.0
C 51.2676137 -18.31418189 1.20490085 2.0
C 52.3248489 -19.2187088 1.20490085 2.0
C 52.8399538 -19.68645409 -1.0e-08 2.0
C 53.89731998 -20.59082629 -1.0e-08 2.0
C 54.41247767 -21.05851179 1.20490085 2.0
C 55.46998203 -21.96272078 1.20490085 2.0
C 55.98519396 -22.43034487 -1.0e-08 2.0
C 57.0428367 -23.33439041 -1.0e-08 2.0
C 57.55810161 -23.80195456 1.20490085 2.0
C 58.61587605 -24.70584455 1.20490085 2.0
C 59.13119007 -25.17335318 -1.0e-08 2.0
C 60.18908307 -26.07710312 -1.0e-08 2.0
C 60.70443991 -26.54456336 1.20490085 2.0
C 33.62759264 0.61903951 0.0 100.0
C 33.11228114 1.08655099 1.20490085 100.0
C 32.05439411 1.99030799 1.20490085 100.0
C 31.53903939 2.45777062 0.0 100.0
C 30.4810515 3.36140849 0.0 100.0
C 29.96566178 3.8288316 1.20490085 100.0
C 28.90759641 4.73237795 1.20490085 100.0
C 28.39218159 5.19977272 0.0 100.0
C 27.33406578 6.10325948 0.0 100.0
C 26.81863692 6.57063842 1.20490086 100.0
C 25.76050006 7.47410031 1.20490086 100.0
C 25.2450689 7.94147665 0.0 100.0
C 24.18694136 8.84494956 0.0 100.0
C 23.67151973 9.31233665 1.20490086 100.0
C 22.61343146 10.21585594 1.20490086 100.0
C 22.09803076 10.68326666 0.0 100.0
C 36.42583602 1.71022003 -1.0e-08 101.0
C 35.91049489 2.17769801 1.20490085 101.0
C 34.85253824 3.08137278 1.20490085 101.0
C 34.33715916 3.5488079 0.0 101.0
C 33.27911677 4.45238139 0.0 101.0
C 32.76370913 4.91978427 1.20490085 101.0
C 31.70560696 5.82328714 1.20490085 101.0
C 31.19018149 6.2906699 0.0 101.0
C 30.1320483 7.19413613 0.0 101.0
C 29.61661658 7.66151184 1.20490086 101.0
C 28.55848256 8.56497709 1.20490086 101.0
C 28.04305646 9.03235913 0.0 101.0
C 26.98495185 9.93585913 0.0 101.0
C 26.46954296 10.4032606 1.20490086 101.0
C 25.41149665 11.30682945 1.20490086 101.0
C 24.89611577 11.77426254 0.0 101.0
C 40.79726178 1.43011133 1.20490085 102.0
C 40.28193508 1.89760562 -1.0e-08 102.0
C 39.22401211 2.80132017 -1.0e-08 102.0
C 38.70864472 3.26876849 1.20490085 102.0
C 37.6506282 4.17237254 1.20490085 102.0
C 37.13522894 4.63978489 0.0 102.0
C 36.07714362 5.54330765 0.0 102.0
C 35.56172284 6.01069571 1.20490085 102.0
C 34.50359667 6.91417023 1.20490085 102.0
C 33.98816572 7.38154681 0.0 102.0
C 32.93002858 8.28500838 0.0 102.0
C 32.4145993 8.75238683 1.20490085 102.0
C 31.35648158 9.65587134 1.20490085 102.0
C 30.8410657 10.12326493 0.0 102.0
C 29.78299689 11.0268072 0.0 102.0
C 29.26760555 11.49422848 1.20490086 102.0
C 34.68536024 -0.28485856 -1.0e-08 0.0
C 35.20062236 -0.75242586 1.20490085 0.0
C 36.25825773 -1.65648011 1.20490085 0.0
C 36.77346673 -2.12410751 -1.0e-08 0.0
C 37.83096355 -3.02832541 -1.0e-08 0.0
C 38.34611832 -3.49601421 1.20490085 0.0
C 39.40347717 -4.40039507 1.20490085 0.0
C 39.91857932 -4.86814349 -1.0e-08 0.0
C 40.97580777 -5.77267836 -1.0e-08 0.0
C 41.49086158 -6.24048158 1.20490085 0.0
C 42.54797391 -7.1451536 1.20490085 0.0
C 43.06298618 -7.61300393 -1.0e-08 0.0
C 44.12000275 -8.51778906 -1.0e-08 0.0
C 44.63498245 -8.98567635 1.20490085 0.0
C 45.69192866 -9.89054458 1.20490085 0.0
C 46.2068865 -10.35845669 -1.0e-08 0.0
C 47.26379153 -11.26337355 -1.0e-08 0.0
C 47.77873938 -11.731297 1.20490085 0.0
C 48.83563461 -12.63622543 1.20490085 0.0
C 49.35058487 -13.10414615 -1.0e-08 0.0
C 50.40750221 -14.00904846 -1.0e-08 0.0
C 50.92246717 -14.4769525 1.20490085 0.0
C 51.97943735 -15.38179241 1.20490085 0.0
C 52.49442848 -15.84966673 -1.0e-08 0.0
C 53.55147938 -16.7544113 -1.0e-08 0.0
C 54.06650679 -17.22224446 1.20490085 0.0
C 55.12366201 -18.12686583 1.20490085 0.0
C 55.63873387 -18.59464858 -1.0e-08 0.0
C 56.6960115 -19.49912537 -1.0e-08 0.0
C 57.21113367 -19.96685109 1.20490085 0.0
C 58.26854545 -20.87116943 1.20490085 0.0
C 58.78372119 -21.33883448 -1.0e-08 0.0
C 59.841272 -22.24298861 -1.0e-08 0.0
C 60.35650187 -22.71059241 1.20490085 0.0
C 61.41418958 -23.61458483 1.20490085 0.0
C 61.92947141 -24.08212984 -1.0e-08 0.0
C 62.98728714 -24.98597106 -1.0e-08 0.0
C 63.50261623 -25.45346265 1.20490085 0.0
C 64.56054482 -26.35717056 1.20490085 0.0
C 65.07591418 -26.82461666 -1.0e-08 0.0
C 37.48368504 0.80641812 -1.0e-08 1.0
C 37.99898064 0.33888869 1.20490085 1.0
C 39.05670528 -0.56506012 1.20490085 1.0
C 39.57194999 -1.03264712 -1.0e-08 1.0
C 40.62953954 -1.93675549 -1.0e-08 1.0
C 41.14473046 -2.40440336 1.20490085 1.0
C 42.20218087 -3.30867607 1.20490085 1.0
C 42.71731779 -3.77638509 -1.0e-08 1.0
C 43.77463199 -4.68081869 -1.0e-08 1.0
C 44.28971742 -5.14858605 1.20490085 1.0
C 45.34690526 -6.05316889 1.20490085 1.0
C 45.86194435 -6.5209888 -1.0e-08 1.0
C 46.91902223 -7.42570151 -1.0e-08 1.0
C 47.43402255 -7.89356541 1.20490085 1.0
C 48.49101262 -8.79838182 1.20490085 1.0
C 49.00598378 -9.26627881 -1.0e-08 1.0
C 50.06291288 -10.17116724 -1.0e-08 1.0
C 50.57786603 -10.63908468 1.20490085 1.0
C 51.63476424 -11.54400959 1.20490085 1.0
C 52.14971151 -12.0119337 -1.0e-08 1.0
C 53.20661059 -12.91685759 -1.0e-08 1.0
C 53.72156441 -13.38477427 1.20490085 1.0
C 54.77849606 -14.28965969 1.20490085 1.0
C 55.29346852 -14.7575552 -1.0e-08 1.0
C 56.35046269 -15.66236677 -1.0e-08 1.0
C 56.86546488 -16.13022855 1.20490085 1.0
C 57.92254819 -17.03493485 1.20490085 1.0
C 58.43758961 -17.50275211 -1.0e-08 1.0
C 59.49478392 -18.40732731 -1.0e-08 1.0
C 60.00987203 -18.87509165 1.20490085 1.0
C 61.0671934 -19.77951677 1.20490085 1.0
C 61.5823332 -20.24722253 -1.0e-08 1.0
C 62.63979113 -21.15148636 -1.0e-08 1.0
C 63.15498499 -21.6191309 1.20490085 1.0
C 64.21258201 -22.52323045 1.20490085 1.0
C 64.72782956 -22.99081422 -1.0e-08 1.0
C 65.78556126 -23.8947547 -1.0e-08 1.0
C 66.30085949 -24.36228117 1.20490085 1.0
C 67.35871481 -25.26607564 1.20490085 1.0
C 67.8740582 -25.73355106 -1.0e-08 1.0
C 41.85507091 0.52626232 1.20490085 2.0
C 42.37035003 0.05871424 -1.0e-08 2.0
C 43.42803051 -0.84528673 -1.0e-08 2.0
C 43.94325748 -1.3128938 1.20490085 2.0
C 45.00080077 -2.21705682 1.20490085 2.0
C 45.51597357 -2.68472519 -1.0e-08 2.0
C 46.57337791 -3.58905232 -1.0e-08 2.0
C 47.08849725 -4.05678125 1.20490085 2.0
C 48.1457679 -4.96126629 1.20490085 2.0
C 48.66083719 -5.42905196 -1.0e-08 2.0
C 49.71798625 -6.33368059 -1.0e-08 2.0
C 50.23301147 -6.80151624 1.20490085 2.0
C 51.29005735 -7.70626673 1.20490085 2.0
C 51.8050468 -8.17414297 -1.0e-08 2.0
C 52.86201338 -9.07898714 -1.0e-08 2.0
C 53.37697723 -9.54689242 1.20490085 2.0
C 54.43389257 -10.45179709 1.20490085 2.0
C 54.94884239 -10.91971832 -1.0e-08 2.0
C 56.00573733 -11.82464709 -1.0e-08 2.0
C 56.5206854 -12.2925703 1.20490085 2.0
C 57.57759186 -13.19748546 1.20490085 2.0
C 58.09255059 -13.66539656 -1.0e-08 2.0
C 59.14949989 -14.57026114 -1.0e-08 2.0
C 59.6644811 -15.03814673 1.20490085 2.0
C 60.72150223 -15.94292646 1.20490085 2.0
C 61.23651653 -16.41077449 -1.0e-08 2.0
C 62.29363468 -17.31543964 -1.0e-08 2.0
C 62.80869095 -17.78324007 1.20490085 2.0
C 63.86592615 -18.68776697 1.20490085 2.0
C 64.38103105 -19.15551227 -1.0e-08 2.0
C 65.43839723 -20.05988447 -1.0e-08 2.0
C 65.95355492 -20.52756997 1.20490085 2.0
C 67.01105927 -21.43177896 1.20490085 2.0
C 67.5262712 -21.89940305 -1.0e-08 2.0
C 68.58391395 -22.80344859 -1.0e-08 2.0
C 69.09917886 -23.27101274 1.20490085 2.0
C 70.1569533 -24.17490272 1.20490085 2.0
C 70.67226731 -24.64241136 -1.0e-08 2.0
C 71.73016032 -25.5461613 -1.0e-08 2.0
C 72.24551716 -26.01362154 1.20490085 2.0
