672
Lattice="45.735643 2.0971038 -4.6334421e-09 -44.382318 37.929233 9.0225776e-09 3.0973184e-08 2.100756e-08 2.4153239" Properties=species:S:1:pos:R:3
C -28.8839 28.3088 0.603831
C -29.433 28.7497 1.81149
C -30.5592 29.5827 1.81149
C -31.1404 29.9756 0.603831
C -32.3216 30.7205 0.603831
C -32.934 31.0559 1.81149
C -34.1692 31.6987 1.81149
C -34.7804 32.0347 0.603831
C -35.9678 32.7549 0.603831
C -36.542 33.1466 1.81149
C -37.6618 33.9642 1.81149
C -38.2031 34.3998 0.603831
C -39.2821 35.2717 0.603831
C -39.8085 35.7253 1.81149
C -40.8762 36.6129 1.81149
C -41.402 37.0678 0.603831
C -25.6776 29.2134 0.603831
C -25.9216 29.9519 1.81149
C -27.2168 30.562 1.81149
C -27.6022 31.2088 0.603831
C -28.9257 31.7543 0.603831
C -29.3334 32.4045 1.81149
C -30.6893 32.9078 1.81149
C -31.1223 33.5456 0.603831
C -32.5665 33.8823 0.603831
C -33.1977 34.1867 1.81149
C -34.4398 34.8769 1.81149
C -35.0277 35.2831 0.603831
C -36.1698 36.118 0.603831
C -36.7222 36.5708 1.81149
C -37.8162 37.4624 1.81149
C -38.3531 37.9292 0.603831
C -21.5375 28.7591 1.81149
C -21.7884 29.5063 0.603831
C -23.0949 30.1213 0.603831
C -23.4734 30.7953 1.81149
C -24.9251 31.232 1.81149
C -25.2001 32.058 0.603831
C -26.6343 32.5147 0.603831
C -26.9341 33.3234 1.81149
C -28.3847 33.7389 1.81149
C -28.7048 34.5405 0.603831
C -30.1784 34.9245 0.603831
C -30.4917 35.7129 1.81149
C -31.854 36.2342 1.81149
C -32.4229 36.6217 0.603831
C -33.5833 37.403 0.603831
C -34.1242 37.8381 1.81149
C -27.8414 27.369 0.603831
C -27.3487 26.8647 1.81149
C -26.395 25.8312 1.81149
C -25.9287 25.2998 0.603831
C -24.9783 24.2651 0.603831
C -24.5098 23.7382 1.81149
C -23.5522 22.7124 1.81149
C -23.0809 22.19 0.603831
C -22.11 21.1786 0.603831
C -21.6329 20.6632 1.81149
C -20.644 19.6716 1.81149
C -20.1597 19.1645 0.603831
C -19.1548 18.1912 0.603831
C -18.6644 17.6912 1.81149
C -17.6488 16.731 1.81149
C -17.1544 16.236 0.603831
C -16.1337 15.2826 0.603831
C -15.6376 14.7906 1.81149
C -14.6165 13.839 1.81149
C -14.12 13.3483 0.603831
C -13.1008 12.3958 0.603831
C -12.6042 11.9062 1.81149
C -11.5866 10.9533 1.81149
C -11.0885 10.466 0.603831
C -10.068 9.51721 0.603831
C -9.56514 9.03562 1.81149
C -8.53278 8.10081 1.81149
C -8.01986 7.63068 0.603831
C -6.96309 6.72482 0.603831
C -6.43281 6.27515 1.81149
C -5.33957 5.41512 1.81149
C -4.78812 4.99224 0.603831
C -3.66022 4.17927 0.603831
C -3.09468 3.7751 1.81149
C -1.95717 2.97669 1.81149
C -1.39367 2.56891 0.603831
C -0.273395 1.74683 0.603831
C 0.276291 1.32009 1.81149
C 1.37084 0.463979 1.81149
C 1.90554 0.018879 0.603831
C -24.7928 28.1829 0.603831
C -24.338 27.6612 1.81149
C -23.4214 26.6346 1.81149
C -22.9728 26.1173 0.603831
C -22.0637 25.075 0.603831
C -21.617 24.5515 1.81149
C -20.6888 23.5228 1.81149
C -20.2296 23.0077 0.603831
C -19.2693 22.0055 0.603831
C -18.7962 21.5006 1.81149
C -17.8086 20.5222 1.81149
C -17.3246 20.0256 0.603831
C -16.3166 19.0663 0.603831
C -15.8244 18.5758 1.81149
C -14.804 17.6279 1.81149
C -14.3066 17.1409 0.603831
C -13.2799 16.198 0.603831
C -12.7795 15.7126 1.81149
C -11.7501 14.771 1.81149
C -11.2473 14.2865 0.603831
C -10.2156 13.3459 0.603831
C -9.70969 12.8633 1.81149
C -8.67279 11.9269 1.81149
C -8.16125 11.4489 0.603831
C -7.11319 10.524 0.603831
C -6.59204 10.0552 1.81149
C -5.52408 9.15246 1.81149
C -4.98873 8.699 0.603831
C -3.89296 7.82923 0.603831
C -3.34163 7.39418 1.81149
C -2.22092 6.556 1.81149
C -1.6599 6.13228 0.603831
C -0.531704 5.30377 0.603831
C 0.0274544 4.87638 1.81149
C 1.14417 4.03145 1.81149
C 1.69363 3.59003 0.603831
C 2.79184 2.71859 0.603831
C 3.33139 2.26251 1.81149
C 4.41509 1.36897 1.81149
C 4.9495 0.903383 0.603831
C -20.6706 27.7048 1.81149
C -20.2291 27.1653 0.603831
C -19.3614 26.0881 0.603831
C -18.925 25.554 1.81149
C -18.015 24.5078 1.81149
C -17.5537 23.9933 0.603831
C -16.5917 22.9919 0.603831
C -16.1131 22.4929 1.81149
C -15.1161 21.5251 1.81149
C -14.6257 21.0371 0.603831
C -13.6082 20.0904 0.603831
C -13.1107 19.609 1.81149
C -12.0825 18.6736 1.81149
C -11.5809 18.1961 0.603831
C -10.5476 17.2659 0.603831
C -10.0433 16.7908 1.81149
C -9.00669 15.8641 1.81149
C -8.49954 15.3917 0.603831
C -7.45779 14.4705 0.603831
C -6.94623 14.0027 1.81149
C -5.89501 13.0923 1.81149
C -5.37641 12.632 0.603831
C -4.30988 11.7397 0.603831
C -3.78131 11.2908 1.81149
C -2.69518 10.4225 1.81149
C -2.15599 9.98618 0.603831
C -1.05321 9.13913 0.603831
C -0.507832 8.71027 1.81149
C 0.599999 7.86963 1.81149
C 1.1437 7.43835 0.603831
C 2.24394 6.58722 0.603831
C 2.78021 6.14641 1.81149
C 3.86675 5.27695 1.81149
C 4.39483 4.82599 0.603831
C 5.46816 3.93941 0.603831
C 5.99045 3.48152 1.81149
C 7.05578 2.58486 1.81149
C 7.57604 2.12461 0.603831
C 8.64357 1.23062 0.603831
C 9.16764 0.774827 1.81149
C -17.4824 28.2845 0.603831
C -17.6945 29.0489 1.81149
C -18.9873 29.687 1.81149
C -19.3584 30.363 0.603831
C -20.8054 30.7976 0.603831
C -21.0833 31.6228 1.81149
C -22.5291 32.0754 1.81149
C -22.8139 32.8898 0.603831
C -24.2801 33.2943 0.603831
C -24.5642 34.1304 1.81149
C -26.027 34.5567 1.81149
C -26.3155 35.3853 0.603831
C -27.7916 35.7935 0.603831
C -28.0697 36.61 1.81149
C -29.5197 37.0593 1.81149
C -29.8855 37.7616 0.603831
C -15.001 29.1408 0.603831
C -15.2729 29.884 1.81149
C -16.7146 30.3536 1.81149
C -16.9808 31.1769 0.603831
C -18.4184 31.6384 0.603831
C -18.6989 32.4524 1.81149
C -20.1631 32.8565 1.81149
C -20.4436 33.6908 0.603831
C -21.906 34.1112 0.603831
C -22.1865 34.9363 1.81149
C -23.65 35.3581 1.81149
C -23.9307 36.1928 0.603831
C -25.3955 36.6135 0.603831
C -25.6651 37.4309 1.81149
C -27.1169 37.8891 1.81149
C -27.4326 38.6123 0.603831
C -11.1453 28.4656 1.81149
C -11.5866 29.0192 0.603831
C -12.5891 29.9548 0.603831
C -12.8892 30.6838 1.81149
C -14.333 31.1556 1.81149
C -14.5956 31.9745 0.603831
C -16.0528 32.4046 0.603831
C -16.3282 33.2419 1.81149
C -17.7873 33.6705 1.81149
C -18.0653 34.4966 0.603831
C -19.5275 34.9183 0.603831
C -19.8083 35.7524 1.81149
C -21.2752 36.1554 1.81149
C -21.5591 36.9682 0.603831
C -23.0032 37.4214 0.603831
C -23.2748 38.2415 1.81149
C -16.7408 27.1375 0.603831
C -16.3274 26.5709 1.81149
C -15.419 25.5233 1.81149
C -14.9481 25.0142 0.603831
C -13.9658 24.0302 0.603831
C -13.478 23.5394 1.81149
C -12.4632 22.59 1.81149
C -11.9657 22.1098 0.603831
C -10.9343 21.1798 0.603831
C -10.4308 20.7064 1.81149
C -9.39188 19.7857 1.81149
C -8.88534 19.316 0.603831
C -7.84241 18.4005 0.603831
C -7.33333 17.934 1.81149
C -6.28546 17.0247 1.81149
C -5.77254 16.5628 0.603831
C -4.71621 15.664 0.603831
C -4.19731 15.2092 1.81149
C -3.12838 14.326 1.81149
C -2.6016 13.8806 0.603831
C -1.51802 13.0159 0.603831
C -0.983685 12.5799 1.81149
C 0.11079 11.7293 1.81149
C 0.648566 11.2975 0.603831
C 1.74439 10.4487 0.603831
C 2.27959 10.0138 1.81149
C 3.36739 9.15466 1.81149
C 3.89602 8.71181 0.603831
C 4.97182 7.83744 0.603831
C 5.49348 7.38642 1.81149
C 6.55823 6.49847 1.81149
C 7.07458 6.04154 0.603831
C 8.13195 5.1449 0.603831
C 8.64546 4.68512 1.81149
C 9.70141 3.78721 1.81149
C 10.2157 3.32879 0.603831
C 11.2799 2.44134 0.603831
C 11.8007 1.99043 1.81149
C 12.8831 1.12779 1.81149
C 13.404 0.66469 0.603831
C -14.146 28.0822 0.603831
C -13.7195 27.5249 1.81149
C -12.7808 26.512 1.81149
C -12.3065 26.0093 0.603831
C -11.3026 25.0533 0.603831
C -10.8069 24.574 1.81149
C -9.77243 23.6514 1.81149
C -9.26736 23.1826 0.603831
C -8.22228 22.2725 0.603831
C -7.71394 21.8076 1.81149
C -6.66503 20.9023 1.81149
C -6.15437 20.4401 0.603831
C -5.10061 19.5408 0.603831
C -4.58607 19.0831 1.81149
C -3.52383 18.1943 1.81149
C -3.00325 17.7437 0.603831
C -1.92918 16.8696 0.603831
C -1.40114 16.4279 1.81149
C -0.314722 15.5696 1.81149
C 0.219592 15.1356 0.603831
C 1.31315 14.2865 0.603831
C 1.84895 13.8543 1.81149
C 2.93979 13.0017 1.81149
C 3.47123 12.5642 0.603831
C 4.55117 11.6975 0.603831
C 5.07524 11.2511 1.81149
C 6.14239 10.3683 1.81149
C 6.65962 9.91386 0.603831
C 7.71667 9.01866 0.603831
C 8.22914 8.55867 1.81149
C 9.28021 7.65617 1.81149
C 9.79024 7.19343 0.603831
C 10.8399 6.2891 0.603831
C 11.3499 5.82633 1.81149
C 12.4011 4.92387 1.81149
C 12.911 4.46044 0.603831
C 13.9553 3.55103 0.603831
C 14.4527 3.06954 1.81149
C 15.4599 2.13033 1.81149
C 15.9099 1.5824 0.603831
C -10.1537 27.5104 1.81149
C -9.6609 27.0248 0.603831
C -8.62116 26.111 0.603831
C -8.11187 25.6473 1.81149
C -7.05889 24.7479 1.81149
C -6.54741 24.2873 0.603831
C -5.49247 23.3902 0.603831
C -4.97963 22.9311 1.81149
C -3.92048 22.0391 1.81149
C -3.40377 21.5845 0.603831
C -2.3358 20.7033 0.603831
C -1.81272 20.2561 1.81149
C -0.732558 19.3903 1.81149
C -0.201729 18.9523 0.603831
C 0.890422 18.1018 0.603831
C 1.42731 17.6712 1.81149
C 2.52493 16.8279 1.81149
C 3.06212 16.3977 0.603831
C 4.15366 15.5462 0.603831
C 4.68446 15.1081 1.81149
C 5.76086 14.2372 1.81149
C 6.28235 13.7879 0.603831
C 7.34271 12.897 0.603831
C 7.85643 12.4385 1.81149
C 8.90556 11.5339 1.81149
C 9.41455 11.0699 0.603831
C 10.458 10.1583 0.603831
C 10.9648 9.6916 1.81149
C 12.0067 8.77791 1.81149
C 12.5128 8.31026 0.603831
C 13.5545 7.39594 0.603831
C 14.0591 6.9264 1.81149
C 15.0943 6.00434 1.81149
C 15.5914 5.52607 0.603831
C 16.6009 4.57603 0.603831
C 17.0781 4.07537 1.81149
C 18.0339 3.0793 1.81149
C 18.4692 2.52707 0.603831
C 19.3799 1.51296 0.603831
C 19.6629 0.775627 1.81149
C -6.97305 28.1116 0.603831
C -7.49117 28.564 1.81149
C -8.56397 29.4361 1.81149
C -9.07581 29.9084 0.603831
C -10.146 30.7656 0.603831
C -10.4947 31.4767 1.81149
C -11.9344 31.9495 1.81149
C -12.2024 32.7689 0.603831
C -13.6701 33.1958 0.603831
C -13.951 34.0275 1.81149
C -15.4087 34.4661 1.81149
C -15.6877 35.305 0.603831
C -17.1531 35.7162 0.603831
C -17.4365 36.5314 1.81149
C -18.8856 36.9847 1.81149
C -19.1649 37.8094 0.603831
C -4.30866 29.2952 0.603831
C -4.83077 29.7504 1.81149
C -5.91789 30.6168 1.81149
C -6.45387 31.0556 0.603831
C -7.60274 31.8499 0.603831
C -8.16058 32.2509 1.81149
C -9.5119 32.799 1.81149
C -9.81327 33.5937 0.603831
C -11.279 34.0058 0.603831
C -11.5896 34.8121 1.81149
C -13.0337 35.2513 1.81149
C -13.3264 36.0645 0.603831
C -14.7581 36.5366 0.603831
C -15.0293 37.3662 1.81149
C -16.4826 37.8103 1.81149
C -16.8639 38.4836 0.603831
C -0.0668459 29.1568 1.81149
C -0.596836 29.6192 0.603831
C -1.67981 30.5109 0.603831
C -2.2105 30.9758 1.81149
C -3.30532 31.8577 1.81149
C -3.84868 32.3119 0.603831
C -4.98758 33.1429 0.603831
C -5.5661 33.5548 1.81149
C -6.80128 34.2527 1.81149
C -7.42393 34.5703 0.603831
C -8.85865 34.9462 0.603831
C -9.28257 35.5864 1.81149
C -10.6222 36.1329 1.81149
C -11.0254 36.7855 0.603831
C -12.3421 37.3614 0.603831
C -12.7247 38.0157 1.81149
C -5.90935 27.2257 0.603831
C -5.39492 26.7691 1.81149
C -4.33532 25.8777 1.81149
C -3.82046 25.421 0.603831
C -2.75715 24.5337 0.603831
C -2.23833 24.0811 1.81149
C -1.16536 23.2054 1.81149
C -0.639741 22.7606 0.603831
C 0.44669 21.9018 0.603831
C 0.980787 21.4669 1.81149
C 2.0804 20.6252 1.81149
C 2.62134 20.1987 0.603831
C 3.7268 19.3646 0.603831
C 4.26803 18.9384 1.81149
C 5.36556 18.0935 1.81149
C 5.89881 17.6573 0.603831
C 6.97652 16.7866 0.603831
C 7.49789 16.3361 1.81149
C 8.55417 15.4388 1.81149
C 9.06577 14.9768 0.603831
C 10.1074 14.0619 0.603831
C 10.6135 13.5934 1.81149
C 11.6486 12.6703 1.81149
C 12.1523 12.1989 0.603831
C 13.1859 11.2736 0.603831
C 13.6889 10.8009 1.81149
C 14.7223 9.87483 1.81149
C 15.224 9.40028 0.603831
C 16.2536 8.46921 0.603831
C 16.751 7.98964 1.81149
C 17.7677 7.04349 1.81149
C 18.2567 6.55481 0.603831
C 19.246 5.5791 0.603831
C 19.7204 5.07432 1.81149
C 20.6474 4.04463 1.81149
C 21.0738 3.48836 0.603831
C 21.8605 2.37317 0.603831
C 22.0892 1.61544 1.81149
C 23.3916 0.991556 1.81149
C 23.7675 0.317037 0.603831
C -3.23951 28.4071 0.603831
C -2.71976 27.9493 1.81149
C -1.65041 27.0616 1.81149
C -1.12765 26.6074 0.603831
C -0.0487211 25.7319 0.603831
C 0.480872 25.2859 1.81149
C 1.57478 24.4301 1.81149
C 2.11387 23.9959 0.603831
C 3.22333 23.1611 0.603831
C 3.77098 22.738 1.81149
C 4.88867 21.9147 1.81149
C 5.43788 21.4938 0.603831
C 6.54796 20.6603 0.603831
C 7.08829 20.2283 1.81149
C 8.17437 19.3634 1.81149
C 8.69952 18.9132 0.603831
C 9.75675 18.0129 0.603831
C 10.2685 17.5475 1.81149
C 11.3049 16.6228 1.81149
C 11.8088 16.1487 0.603831
C 12.8354 15.2128 0.603831
C 13.3361 14.7353 1.81149
C 14.3607 13.7969 1.81149
C 14.8605 13.3185 0.603831
C 15.8858 12.3809 0.603831
C 16.3849 11.9017 1.81149
C 17.4091 10.9629 1.81149
C 17.9058 10.4813 0.603831
C 18.923 9.53491 0.603831
C 19.4142 9.04799 1.81149
C 20.4152 8.08434 1.81149
C 20.8966 7.58796 0.603831
C 21.8681 6.59519 0.603831
C 22.3352 6.08567 1.81149
C 23.264 5.05516 1.81149
C 23.7126 4.53118 0.603831
C 24.6066 3.47618 0.603831
C 25.0569 2.94278 1.81149
C 25.9488 1.90965 1.81149
C 26.2083 1.1663 0.603831
C 1.02123 28.2756 1.81149
C 1.55766 27.8233 0.603831
C 2.66076 26.9645 0.603831
C 3.20851 26.5278 1.81149
C 4.33073 25.6968 1.81149
C 4.88943 25.2757 0.603831
C 6.02427 24.4638 0.603831
C 6.5866 24.0489 1.81149
C 7.71607 23.2305 1.81149
C 8.26942 22.8048 0.603831
C 9.37161 21.9504 0.603831
C 9.90597 21.502 1.81149
C 10.9709 20.6015 1.81149
C 11.4858 20.1315 0.603831
C 12.5207 19.1968 0.603831
C 13.0237 18.7146 1.81149
C 14.0439 17.7641 1.81149
C 14.5419 17.2775 0.603831
C 15.5588 16.3238 0.603831
C 16.0557 15.8365 1.81149
C 17.0744 14.8854 1.81149
C 17.5712 14.3986 0.603831
C 18.5916 13.4499 0.603831
C 19.0874 12.9627 1.81149
C 20.1057 12.0126 1.81149
C 20.5985 11.523 0.603831
C 21.6084 10.5646 0.603831
C 22.0955 10.0701 1.81149
C 23.0896 9.09602 1.81149
C 23.5686 8.59468 0.603831
C 24.5411 7.60047 0.603831
C 25.0098 7.09059 1.81149
C 25.9571 6.07411 1.81149
C 26.4169 5.55731 0.603831
C 27.3496 4.52972 0.603831
C 27.8122 4.01886 1.81149
C 28.7502 3.004 1.81149
C 29.2137 2.48262 0.603831
C 30.1159 1.45814 0.603831
C 30.3636 0.714637 1.81149
C 4.39847 28.9638 0.603831
C 3.84812 29.3961 1.81149
C 2.74676 30.2519 1.81149
C 2.2108 30.7017 0.603831
C 1.12728 31.5804 0.603831
C 0.599118 32.039 1.81149
C -0.47971 32.9229 1.81149
C -1.0102 33.3783 0.603831
C -2.10315 34.2425 0.603831
C -2.65102 34.6761 1.81149
C -3.78252 35.4842 1.81149
C -4.36404 35.869 0.603831
C -5.55256 36.5836 0.603831
C -6.16469 36.9148 1.81149
C -7.3878 37.5687 1.81149
C -7.98144 37.93 0.603831
C 7.386 30.0882 0.603831
C 6.81526 30.4889 1.81149
C 5.6869 31.3021 1.81149
C 5.13661 31.7307 0.603831
C 4.03847 32.5857 0.603831
C 3.50499 33.0349 1.81149
C 2.42494 33.9133 1.81149
C 1.89826 34.3701 0.603831
C 0.819536 35.2499 0.603831
C 0.287577 35.7005 1.81149
C -0.809241 36.5565 1.81149
C -1.35956 36.9845 0.603831
C -2.49339 37.7891 0.603831
C -3.0717 38.179 1.81149
C -4.24903 38.9184 1.81149
C -4.84484 39.2818 0.603831
C 12.1647 30.2821 1.81149
C 11.5738 30.6526 0.603831
C 10.3775 31.3644 0.603831
C 9.7811 31.7266 1.81149
C 8.60603 32.4701 1.81149
C 8.03096 32.8656 0.603831
C 6.89874 33.6749 0.603831
C 6.35123 34.1078 1.81149
C 5.25518 34.9672 1.81149
C 4.72569 35.4213 0.603831
C 3.6467 36.3024 0.603831
C 3.1213 36.7609 1.81149
C 2.04029 37.6391 1.81149
C 1.50718 38.0885 0.603831
C 0.406625 38.9412 0.603831
C -0.144473 39.3684 1.81149
C 5.52435 28.1411 0.603831
C 6.09042 27.7292 1.81149
C 7.23691 26.935 1.81149
C 7.81049 26.5335 0.603831
C 8.95809 25.7393 0.603831
C 9.52352 25.3266 1.81149
C 10.642 24.4907 1.81149
C 11.185 24.0491 0.603831
C 12.257 23.1537 0.603831
C 12.7744 22.6827 1.81149
C 13.8055 21.74 1.81149
C 14.3053 21.2507 0.603831
C 15.3156 20.2855 0.603831
C 15.8086 19.7897 1.81149
C 16.8147 18.8202 1.81149
C 17.3067 18.3237 0.603831
C 18.3163 17.3582 0.603831
C 18.8094 16.8632 1.81149
C 19.824 15.9033 1.81149
C 20.318 15.4096 0.603831
C 21.3353 14.4529 0.603831
C 21.8288 13.959 1.81149
C 22.8441 13.0006 1.81149
C 23.3351 12.5045 0.603831
C 24.3429 11.5384 0.603831
C 24.8295 11.0383 1.81149
C 25.825 10.0598 1.81149
C 26.3061 9.55461 0.603831
C 27.2868 8.56157 0.603831
C 27.7629 8.05186 1.81149
C 28.7326 7.04858 1.81149
C 29.2061 6.53656 0.603831
C 30.1684 5.52619 0.603831
C 30.6387 5.01067 1.81149
C 31.5969 3.99669 1.81149
C 32.0796 3.49529 0.603831
C 33.0922 2.53927 0.603831
C 33.6215 2.08814 1.81149
C 34.7065 1.21692 1.81149
C 35.2643 0.800264 0.603831
C 8.54472 29.3194 0.603831
C 9.12782 28.9374 1.81149
C 10.2948 28.1795 1.81149
C 10.8702 27.7867 0.603831
C 12.0042 26.9787 0.603831
C 12.5525 26.5493 1.81149
C 13.6291 25.6651 1.81149
C 14.1454 25.1974 0.603831
C 15.168 24.2502 0.603831
C 15.6614 23.7579 1.81149
C 16.6547 22.7789 1.81149
C 17.1389 22.2771 0.603831
C 18.1266 21.2914 0.603831
C 18.6105 20.7887 1.81149
C 19.604 19.8081 1.81149
C 20.0906 19.3077 0.603831
C 21.0932 18.3359 0.603831
C 21.5828 17.8381 1.81149
C 22.5932 16.8741 1.81149
C 23.0849 16.378 0.603831
C 24.0992 15.4179 0.603831
C 24.5913 14.9221 1.81149
C 25.6047 13.9608 1.81149
C 26.0955 13.4635 0.603831
C 27.1034 12.4963 0.603831
C 27.5917 11.9966 1.81149
C 28.5912 11.0206 1.81149
C 29.0767 10.5182 0.603831
C 30.0676 9.5336 0.603831
C 30.5508 9.02898 1.81149
C 31.5359 8.03903 1.81149
C 32.0194 7.53472 0.603831
C 33.0092 6.55029 0.603831
C 33.5015 6.05499 1.81149
C 34.5202 5.10126 1.81149
C 35.0341 4.62872 0.603831
C 36.102 3.73118 0.603831
C 36.6454 3.2932 1.81149
C 37.7728 2.47315 1.81149
C 38.3523 2.08407 0.603831
C 13.3245 29.51 1.81149
C 13.8855 29.0961 0.603831
C 14.9795 28.2321 0.603831
C 15.5022 27.7705 1.81149
C 16.5246 26.822 1.81149
C 17.0142 26.3249 0.603831
C 17.9903 25.3276 0.603831
C 18.4664 24.8167 1.81149
C 19.4338 23.8098 1.81149
C 19.9099 23.2986 0.603831
C 20.8847 22.298 0.603831
C 21.3644 21.7899 1.81149
C 22.3514 20.8009 1.81149
C 22.8357 20.2973 0.603831
C 23.8359 19.3216 0.603831
C 24.3246 18.8221 1.81149
C 25.3348 17.8571 1.81149
C 25.8265 17.3607 0.603831
C 26.8418 16.4013 0.603831
C 27.3348 15.9065 1.81149
C 28.3502 14.9476 1.81149
C 28.8429 14.4528 0.603831
C 29.8547 13.4905 0.603831
C 30.3464 12.995 1.81149
C 31.353 12.0279 1.81149
C 31.8437 11.5317 0.603831
C 32.8468 10.5615 0.603831
C 33.3383 10.0666 1.81149
C 34.345 9.10098 1.81149
C 34.8423 8.61234 0.603831
C 35.8662 7.66581 0.603831
C 36.3777 7.19225 1.81149
C 37.4364 6.28556 1.81149
C 37.971 5.8386 0.603831
C 39.079 4.99429 0.603831
C 39.6419 4.58368 1.81149
C 40.7954 3.8039 1.81149
C 41.3748 3.41637 0.603831
C 42.534 2.647 0.603831
C 43.1059 2.24835 1.81149
