63
Lattice="6.1664103398 8.4064761892e-08 3.5601787667 -1.4021577614e-05 7.1203555226 2.4073838185e-05 -3.5601778532 2.7859344243e-05 6.1664087134" Properties=species:S:1:pos:R:3
C -0.00411878 -0.07806163 -0.09251578
C 1.64822981 1.82989265 0.86147896
C 0.69425737 -0.07805224 2.51380771
C 0.9913692 0.86948258 3.62262838
C -0.95810062 1.82990196 1.55982913
C -0.54334919 2.64161746 2.7365743
C 1.87742972 2.64160361 2.08792655
C -1.75680431 -0.01200422 3.07536282
C -2.6511578 1.76387244 4.62442838
C -0.21887762 1.76387046 3.96331091
C -1.11320886 -0.01200218 5.51233801
C -0.80312525 0.88238571 6.73078378
C -1.43501531 0.87593412 4.29385819
C -2.32668184 2.64162063 5.85117041
C 0.10893426 2.65538786 5.17858542
C 0.02007005 3.54174448 -0.00227384
C -0.86786834 5.33045136 1.53568044
C 1.55800682 5.33042918 0.88565673
C 0.67007052 3.54176674 2.42360757
C 0.99640003 4.43031939 3.64144962
C 0.3450666 4.43609793 1.21066589
C -0.53219058 6.23060314 2.74302039
C 1.87097808 6.23059236 2.09910095
C -1.76452157 3.55118064 3.08180319
C -2.64945282 5.3210431 4.61454903
C -0.22058492 5.32104016 3.97319885
C -1.1055132 3.5511836 5.50593959
C -0.78432406 4.4419044 6.7257541
C -1.43501743 4.43611187 4.29387307
C -2.33784373 6.2306063 5.84472975
C 0.10314171 6.21683594 5.18861829
C 3.09771735 -0.01201609 1.77459296
C 2.20978101 1.76385656 3.31254378
C 4.64676545 1.76385088 2.66894287
C 3.75883481 -0.0120104 4.20688385
C 4.09951728 0.88238871 5.41712499
C 3.42828485 0.87592023 2.99074674
C 2.5335492 2.65538183 4.52891614
C 4.97912753 2.64160922 3.89359535
C 1.32428238 -0.0154674 4.86509916
C 0.43934263 1.76733569 6.39785966
C 2.85703403 1.76732693 5.75004238
C 1.9721018 -0.01545859 7.28278998
C 2.30502842 0.86947965 8.52527069
C 1.64819053 0.87593415 6.07394798
C 0.76282989 2.65539588 7.61899462
C 3.18744388 2.65538848 6.96932538
C 3.10759522 3.55115828 1.77631072
C 2.21619362 5.32103768 3.32026345
C 4.64034621 5.32103024 2.6612551
C 3.74895344 3.55116575 4.20519264
C 4.08069508 4.44189088 5.42216891
C 3.42827245 4.43609799 2.99075565
C 2.54354592 6.21682795 4.53470398
C 4.98558198 6.23058679 3.88241572
C 1.32215621 3.54539611 4.85721804
C 0.43144035 5.32682773 6.39998305
C 2.86492739 5.32681619 5.74795076
C 1.97422314 3.54540768 7.29069578
C 2.29997159 4.43033301 8.50647242
C 1.64819162 4.43611193 6.07396471
C 0.75281901 6.21684203 7.6132311
C 3.19322279 6.21683542 6.95931595
