63
Lattice="6.1769846387 3.3828131234e-16 3.5662837439 3.7243555008e-16 7.1325674879 3.1485329388e-17 -3.5662837439 -1.5895067995e-16 6.1769846387" Properties=species:S:1:pos:R:3
C -0.00120214 0.01425102 0.01576161
C 1.5247789 1.77630215 0.89678717
C 0.64375334 0.01425102 2.42276821
C 0.97641426 0.89377633 3.64967878
C 0.4171737 0.8250743 1.19356909
C -0.54089387 2.74120944 2.8529908
C 1.8657798 2.67250741 2.10925248
C -1.78193973 0.01425102 3.07273071
C -2.67471281 1.78314187 4.63273848
C -0.24411195 1.78998159 3.960596
C -1.12796509 5.77e-04 5.51882258
C -0.79678475 0.8901517 6.74025007
C -1.45657726 0.89377633 4.3015969
C -2.35242206 2.67250741 5.85324561
C 0.0894098 2.67613205 5.20531609
C -0.01304888 3.55203272 0.00892189
C -0.89157093 5.34942562 1.54424616
C 1.54345796 5.3434231 0.89178213
C 0.63691362 3.55203272 2.43461495
C 0.98295931 4.46323107 3.65764294
C 0.32332499 4.45358082 1.21871578
C -0.56604055 6.24527042 2.75914208
C 1.87594948 6.23562016 2.11093859
C -1.77009299 3.55203272 3.07957043
C -2.67471281 5.34942562 4.63273848
C -0.23910691 5.35542814 3.97927505
C -1.13396761 3.56570674 5.52921925
C -0.80508044 4.4571582 6.74247289
C -1.45826335 4.46323107 4.31176658
C -2.3444579 6.23562016 5.84670056
C 0.08718697 6.24169303 5.19702039
C 3.09340215 5.77e-04 1.78664283
C 2.19692138 1.78314187 3.32738803
C 4.63795472 1.78998159 2.69418007
C 3.75008943 0.01425102 4.23200785
C 3.97666907 0.8250743 5.46120697
C 3.41742851 0.89377633 3.00509728
C 2.52806297 2.67250741 4.54552358
C 4.93473664 2.74120944 3.80178526
C 1.30044061 5.77e-04 4.86813323
C 0.41377951 1.78314187 6.41588035
C 2.86906387 1.77630215 5.75798889
C 1.95552411 5.77e-04 7.31293813
C 2.28413628 0.89377633 8.53016381
C 1.62434377 0.8901517 6.09151063
C 0.73814923 2.67613205 7.62644461
C 3.17998108 2.67250741 6.9785151
C 3.08300548 3.56570674 1.78064031
C 2.19692138 5.34942562 3.32738803
C 4.63294968 5.35542814 2.67550101
C 3.75692915 3.55203272 4.22016111
C 4.07051778 4.45358082 5.43606028
C 3.41088346 4.46323107 2.99713313
C 2.51789328 6.23562016 4.54383748
C 4.95988332 6.24527042 3.89563398
C 1.31083728 3.56570674 4.87413575
C 0.41377951 5.34942562 6.41588035
C 2.85038481 5.3434231 5.76299393
C 1.96152663 3.56570674 7.30254146
C 2.28582238 4.46323107 8.51999412
C 1.63263947 4.4571582 6.08928781
C 0.74037205 6.24169303 7.63474031
C 3.17201692 6.23562016 6.98506014
