63
Lattice="6.1216442208 0.0304278047 3.5694679413 0.039515471 7.0867854297 -0.0074243353 -3.5169709431 -0.0261873985 6.1525908303" Properties=species:S:1:pos:R:3
C -0.03479541 -0.02555662 -0.04959938
C 1.46359449 1.83454879 0.91872029
C 0.57823903 0.06383786 2.45220093
C 0.9886675 0.87640819 3.66542275
C -0.18857506 1.39512695 1.50207998
C -0.42688966 2.56519 2.71556141
C 1.89047113 2.68001546 2.10345303
C -1.75694985 -0.03057844 3.07415349
C -2.6163009 1.74578915 4.60938105
C -0.19170063 1.75917815 3.98339353
C -1.11944826 -0.00986782 5.51465935
C -0.84189127 0.8825771 6.7388671
C -1.41722766 0.86608766 4.29315133
C -2.29381123 2.64284393 5.82711171
C 0.12277274 2.64928223 5.18831455
C 0.02872434 3.54076994 -0.01872494
C -0.83919971 5.29999153 1.53135149
C 1.55326526 5.33555922 0.88538374
C 0.70149545 3.5455703 2.43633254
C 1.01404454 4.43182583 3.6445865
C 0.36302448 4.42659195 1.20966417
C -0.518567 6.19333238 2.75229851
C 1.84530804 6.25697574 2.08450135
C -1.68399722 3.4600701 3.02308856
C -2.59922181 5.27453167 4.58984315
C -0.19054089 5.30150457 3.9640641
C -1.07716785 3.52825066 5.49974704
C -0.75239319 4.42380386 6.71546961
C -1.38461719 4.38568517 4.26474392
C -2.28728321 6.188 5.82472335
C 0.13168682 6.19196387 5.18419812
C 3.03581105 0.02744799 1.78442054
C 2.20380263 1.77643799 3.32361995
C 4.6180574 1.78583331 2.67227162
C 3.72775395 0.00522641 4.21432243
C 4.07777043 0.84014241 5.42494712
C 3.39983355 0.89546168 2.9968849
C 2.55141322 2.65085957 4.53400808
C 4.98732763 2.65925681 3.84954784
C 1.31359519 -0.01175236 4.86829112
C 0.42202783 1.76402439 6.40186945
C 2.89270132 1.75970183 5.73773193
C 1.95210396 -0.0087826 7.27993445
C 2.29022778 0.87680373 8.49952016
C 1.63822776 0.87405565 6.07331269
C 0.77749223 2.64655941 7.60251784
C 3.2081085 2.64181505 6.94863726
C 3.09910446 3.55926619 1.77569834
C 2.20659947 5.33316767 3.3109007
C 4.62077336 5.32855619 2.65766347
C 3.77418588 3.52267095 4.21095589
C 4.09402205 4.41364214 5.41418999
C 3.42146453 4.4405292 2.984656
C 2.55182626 6.19522747 4.52928115
C 4.95966915 6.21568649 3.87591207
C 1.3427639 3.53699617 4.85941648
C 0.45602015 5.30700829 6.39128869
C 2.87992298 5.30052896 5.7414054
C 1.99577922 3.53224144 7.27278731
C 2.31301097 4.42759234 8.4846555
C 1.66740871 4.42031477 6.06681871
C 0.77220182 6.19632325 7.60072872
C 3.19492566 6.19142172 6.95713445
