63
Lattice="6.131567977 0.0304512296 3.5752244733 0.0396279445 7.098087499 -0.0075911124 -3.5226098392 -0.0263880685 6.1623857176" Properties=species:S:1:pos:R:3
C -0.03554462 -0.0252955 -0.04973042
C 1.4673533 1.83798498 0.91969431
C 0.57976181 0.06280199 2.45704788
C 0.9901631 0.8775834 3.67131013
C -0.18891219 1.39635462 1.50330292
C -0.42774824 2.56982233 2.72041467
C 1.89355455 2.68436629 2.10659025
C -1.75970351 -0.0309526 3.07899092
C -2.62040186 1.74844943 4.61664921
C -0.19192721 1.76185587 3.98942147
C -1.12133919 -0.00985863 5.52358451
C -0.84257091 0.88382165 6.74950312
C -1.41961056 0.86736201 4.30003893
C -2.29721543 2.64703457 5.83632889
C 0.12310284 2.65335343 5.19631015
C 0.02894084 3.54633611 -0.01903198
C -0.84045836 5.30833643 1.53369664
C 1.55570718 5.3442341 0.88680419
C 0.70259683 3.55090395 2.44006038
C 1.01571871 4.43858518 3.65025411
C 0.36358255 4.43374823 1.21145787
C -0.51922432 6.2030168 2.75675795
C 1.84878157 6.26652662 2.08794387
C -1.68700712 3.46585292 3.02802822
C -2.60346095 5.28319052 4.59739405
C -0.19074057 5.30967159 3.97040536
C -1.07865526 3.53384219 5.50831873
C -0.7535216 4.43097454 6.72603245
C -1.38691267 4.3929721 4.27183285
C -2.29131784 6.19839391 5.83439581
C 0.13182901 6.20167577 5.1925602
C 3.04095064 0.02737562 1.78730431
C 2.20764174 1.77907422 3.32888052
C 4.6255066 1.78889755 2.67629357
C 3.73355028 0.00498492 4.22120722
C 4.0833861 0.84063635 5.43383916
C 3.40535864 0.89683737 3.00166333
C 2.5557368 2.6548378 4.54109797
C 4.99514278 2.66414971 3.85463027
C 1.31560001 -0.01192 4.87625373
C 0.42314259 1.76683744 6.41179141
C 2.89734042 1.76232433 5.74689793
C 1.9554099 -0.0088676 7.29162482
C 2.29376226 0.87823495 8.5132164
C 1.64089912 0.87529957 6.08307407
C 0.77870268 2.65085708 7.61431353
C 3.21331631 2.64592394 6.95970517
C 3.10413981 3.5651596 1.77841193
C 2.21032535 5.34120295 3.31630007
C 4.62835739 5.33702738 2.66194396
C 3.78032295 3.52828939 4.21752732
C 4.10066601 4.42062333 5.42277042
C 3.42707289 4.44764712 2.98933034
C 2.55569294 6.20483762 4.53647611
C 4.96753505 6.22578054 3.88210607
C 1.34517358 3.54236446 4.86700647
C 0.45687099 5.31534767 6.40140941
C 2.88453313 5.30877593 5.75059127
C 1.99909095 3.53789157 7.28422212
C 2.31696959 4.43466794 8.49816349
C 1.67019537 4.42715264 6.07632328
C 0.7737371 6.20595681 7.61273899
C 3.20020595 6.20114067 6.96835322
