8
Lattice="4.330127018922193 0.0 0.0 0.0 2.5 0.0 0.0 0.0 6.4" Properties=species:S:1:pos:R:3 pbc="T T T"
C        0.00000000       0.10000000       0.00000000
C        3.60843918       1.25000000       0.00000000
C        3.60843918       1.25000000       3.20000000
C        0.72168784       1.25000000       3.20000000
C        2.16506351       1.25000000       0.00000000
C        1.44337567       0.00000000       0.00000000
C        1.44337567       0.00000000       3.20000000
C        2.88675135       0.00000000       3.20000000
