63
Lattice="6.176984638695755 3.382813123378884e-16 3.566283743931177 3.7243555008267633e-16 7.132567487862354 3.1485329387718254e-17 -3.566283743931177 -1.5895067994505337e-16 6.176984638695756" Properties=species:S:1:pos:R:3:forces:R:3 spacegroup="F d -3 m" unit_cell=conventional niter=11 energy=-609.4377283722632 stress="-1.771408300960853e-05 -1.484113993902735e-10 6.040251896798348e-11 -1.484113993902735e-10 -1.7714217162953073e-05 2.2295735506017525e-10 6.040251896798348e-11 2.2295735506017525e-10 -1.7714192132159317e-05" pbc="T T T"
C       -0.00120214       0.01425102       0.01576161       0.00298275      -0.00283204      -0.00154807
C        1.52477890       1.77630215       0.89678717       0.00386867      -0.00180897      -0.00103657
C        0.64375334       0.01425102       2.42276821       0.00335714      -0.00283203      -0.00015057
C        0.97641426       0.89377633       3.64967878       0.00050814       0.00099686      -0.00085766
C        0.41717370       0.82507430       1.19356909       0.00713226      -0.00522116      -0.00191107
C       -0.54089387       2.74120944       2.85299080       0.00191104       0.00522119       0.00713225
C        1.86577980       2.67250741       2.10925248      -0.00048870      -0.00099683       0.00086892
C       -1.78193973       0.01425102       3.07273071      -0.00298276      -0.00283203       0.00154829
C       -2.67471281       1.78314187       4.63273848       0.00000008       0.00000001      -0.00000005
C       -0.24411195       1.78998159       3.96059600       0.00103653       0.00180906       0.00386883
C       -1.12796509       0.00057700       5.51882258      -0.00035534       0.00079515      -0.00097450
C       -0.79678475       0.89015170       6.74025007       0.00216445       0.00043610      -0.00057999
C       -1.45657726       0.89377633       4.30159690      -0.00086882       0.00099686      -0.00048888
C       -2.35242206       2.67250741       5.85324561      -0.00085765      -0.00099682      -0.00050820
C        0.08940980       2.67613205       5.20531609       0.00057986      -0.00043653       0.00216459
C       -0.01304888       3.55203272       0.00892189      -0.00015063       0.00283224      -0.00335711
C       -0.89157093       5.34942562       1.54424616       0.00000003      -0.00000008       0.00000003
C        1.54345796       5.34342310       0.89178213      -0.00108605      -0.00066627       0.00029113
C        0.63691362       3.55203272       2.43461495       0.00154812       0.00283224       0.00298273
C        0.98295931       4.46323107       3.65764294       0.00159046       0.00158467       0.00041418
C        0.32332499       4.45358082       1.21871578      -0.00136173       0.00001103       0.00036488
C       -0.56604055       6.24527042       2.75914208      -0.00036488      -0.00001129      -0.00136169
C        1.87594948       6.23562016       2.11093859       0.00115414      -0.00158452       0.00116991
C       -1.77009299       3.55203272       3.07957043       0.00015060       0.00283222       0.00335731
C       -2.67471281       5.34942562       4.63273848       0.00000017      -0.00000027      -0.00000021
C       -0.23910691       5.35542814       3.97927505      -0.00029102       0.00066584      -0.00108599
C       -1.13396761       3.56570674       5.52921925      -0.00102143      -0.00079498       0.00017912
C       -0.80508044       4.45715820       6.74247289      -0.00076316      -0.00055848       0.00020449
C       -1.45826335       4.46323107       4.31176658      -0.00117040       0.00158467       0.00115408
C       -2.34445790       6.23562016       5.84670056       0.00041422      -0.00158451      -0.00159048
C        0.08718697       6.24169303       5.19702039      -0.00020458       0.00055867      -0.00076299
C        3.09340215       0.00057700       1.78664283       0.00017940       0.00079513       0.00102172
C        2.19692138       1.78314187       3.32738803       0.00000005       0.00000001       0.00000005
C        4.63795472       1.78998159       2.69418007      -0.00103679       0.00180905      -0.00386872
C        3.75008943       0.01425102       4.23200785      -0.00335733      -0.00283202       0.00015056
C        3.97666907       0.82507430       5.46120697      -0.00713231      -0.00522111       0.00191107
C        3.41742851       0.89377633       3.00509728      -0.00050798       0.00099687       0.00085781
C        2.52806297       2.67250741       4.54552358       0.00048891      -0.00099684      -0.00086878
C        4.93473664       2.74120944       3.80178526      -0.00191116       0.00522119      -0.00713223
C        1.30044061       0.00057700       4.86813323      -0.00017916       0.00079517      -0.00102137
C        0.41377951       1.78314187       6.41588035       0.00000035       0.00000020      -0.00000011
C        2.86906387       1.77630215       5.75798889      -0.00386888      -0.00180894       0.00103665
C        1.95552411       0.00057700       7.31293813       0.00035553       0.00079517       0.00097409
C        2.28413628       0.89377633       8.53016381       0.00086889       0.00099684       0.00048862
C        1.62434377       0.89015170       6.09151063      -0.00216469       0.00043613       0.00058003
C        0.73814923       2.67613205       7.62644461      -0.00058010      -0.00043652      -0.00216454
C        3.17998108       2.67250741       6.97851510       0.00085777      -0.00099683       0.00050792
C        3.08300548       3.56570674       1.78064031      -0.00097422      -0.00079496       0.00035572
C        2.19692138       5.34942562       3.32738803       0.00000012      -0.00000027       0.00000030
C        4.63294968       5.35542814       2.67550101       0.00029085       0.00066582       0.00108611
C        3.75692915       3.55203272       4.22016111      -0.00154831       0.00283220      -0.00298270
C        4.07051778       4.45358082       5.43606028       0.00136167       0.00001099      -0.00036487
C        3.41088346       4.46323107       2.99713313      -0.00159042       0.00158466      -0.00041463
C        2.51789328       6.23562016       4.54383748      -0.00115409      -0.00158450      -0.00117036
C        4.95988332       6.24527042       3.89563398       0.00036483      -0.00001129       0.00136169
C        1.31083728       3.56570674       4.87413575       0.00097448      -0.00079495      -0.00035531
C        0.41377951       5.34942562       6.41588035       0.00000035      -0.00000027      -0.00000011
C        2.85038481       5.34342310       5.76299393       0.00108590      -0.00066629      -0.00029098
C        1.96152663       3.56570674       7.30254146       0.00102157      -0.00079495      -0.00017956
C        2.28582238       4.46323107       8.51999412       0.00117027       0.00158467      -0.00115398
C        1.63263947       4.45715820       6.08928781       0.00076296      -0.00055852      -0.00020443
C        0.74037205       6.24169303       7.63474031       0.00020432       0.00055865       0.00076303
C        3.17201692       6.23562016       6.98506014      -0.00041431      -0.00158451       0.00159061
63
Lattice="6.151130605388553 0.013652399124491826 3.56712134346085 0.02142017564485451 7.103610996545603 -0.009818654809645241 -3.5399919687872274 -0.019213292318570066 6.158728126039562" Properties=species:S:1:pos:R:3:forces:R:3 spacegroup="F d -3 m" unit_cell=conventional niter=11 energy=-608.6387061838066 stress="-0.0011421206555228339 0.0008021326095301055 0.00022892707609577868 0.0008021326095301055 -0.0002541851012412799 9.38193806556562e-05 0.00022892707609577868 9.38193806556562e-05 0.00030613563487502177" pbc="T T T"
C       -0.04158935       0.04302090       0.02566463      -0.03217889       0.36417830       0.40193839
C        1.47644998       1.81340456       0.91332874       0.04832689      -0.11750141      -0.02002211
C        0.59611815       0.05274090       2.43810819       0.08632605      -0.04150310      -0.08583858
C        0.98461755       0.87967294       3.66047948      -0.02268385       0.02740239      -0.03189164
C        0.12149631       1.07032372       1.30604931       1.69006897      -1.74877034      -1.04354428
C       -0.49007130       2.62474175       2.74784792      -0.27738518       0.27904094       0.16206032
C        1.88366080       2.67775945       2.10329089      -0.04452357      -0.01627704       0.00593586
C       -1.76647395      -0.01480101       3.07453982       0.00991104       0.06708963      -0.01371617
C       -2.64173139       1.75571673       4.61624542      -0.02061956       0.00301439       0.01511626
C       -0.21422535       1.76322889       3.96565015      -0.07461612       0.00309689      -0.10254037
C       -1.12728455      -0.00738128       5.51730292       0.01193340       0.00629810      -0.00798042
C       -0.82643648       0.88190662       6.73621727       0.14105289      -0.01593204      -0.03605886
C       -1.43449036       0.87140302       4.29720060      -0.02173598       0.00493900       0.00480165
C       -2.31789128       2.65472036       5.83196143      -0.00714368       0.00866378       0.00374885
C        0.10941441       2.65563341       5.18729050      -0.01782493       0.01068080      -0.01579438
C        0.01385984       3.54586656      -0.00908875      -0.03205081      -0.01683407       0.05896389
C       -0.86026401       5.31865150       1.53065340      -0.01042633       0.02340085      -0.00253893
C        1.54728947       5.34176677       0.88480483       0.00234538      -0.01287795       0.00862653
C        0.67489343       3.54146645       2.42565126      -0.10191182      -0.05149451      -0.05526284
C        1.00040677       4.43761814       3.64404645      -0.02554827      -0.00476587      -0.00241717
C        0.34917316       4.43873007       1.20780475      -0.01669231       0.01502634      -0.00393424
C       -0.54046527       6.20957239       2.75336927      -0.00806635       0.00681844       0.00534696
C        1.85608697       6.24695352       2.08995036       0.09814175      -0.10175434       0.03826543
C       -1.72090942       3.49520663       3.04234946      -0.08770029       0.12372558       0.09223221
C       -2.63962440       5.31040815       4.60794329      -0.05085255       0.09367305       0.07880459
C       -0.21180464       5.31774742       3.96521903      -0.02059773       0.02388920       0.00127682
C       -1.10073698       3.53988273       5.50489502      -0.02684002       0.01140462       0.01208878
C       -0.77448516       4.43375628       6.71867604      -0.00954128      -0.00340808       0.00124081
C       -1.41908727       4.41724632       4.28128629      -0.06711548       0.09759405       0.07394277
C       -2.32316779       6.21914761       5.83997154      -0.01483339       0.06127548       0.06219077
C        0.11153006       6.20578671       5.18405267      -0.00491463       0.00584521      -0.00677278
C        3.06114699       0.01474402       1.78437897       0.05567128      -0.02233514       0.00635143
C        2.20424385       1.77432366       3.32143326      -0.02338807       0.00341253      -0.00956266
C        4.63018578       1.78272849       2.67566226      -0.02907245       0.02695209       0.03313570
C        3.73987083       0.00209860       4.21773298      -0.02093220       0.04323258       0.01903638
C        4.04879559       0.83703682       5.43334039      -0.22929318       0.04223107       0.04476767
C        3.41022817       0.88958630       2.99610193      -0.01477349       0.00918161       0.00207253
C        2.54842762       2.65320107       4.53498808      -0.03486201       0.02305933       0.00649903
C        4.97078369       2.68101301       3.83641016      -0.17370045       0.15341653      -0.05152176
C        1.30956777      -0.01182545       4.86846290      -0.03779400       0.02701503      -0.00967423
C        0.41515534       1.76753067       6.40266544      -0.00087369       0.01126678      -0.00901012
C        2.88685483       1.75988521       5.74190077      -0.06657853       0.02752478       0.01930925
C        1.95693582      -0.01154176       7.29261499      -0.00168014       0.02490795       0.05164036
C        2.28686685       0.87771127       8.50838254      -0.03602611       0.03908145       0.03060176
C        1.63396084       0.87615124       6.07903657      -0.03176239       0.03359956       0.01874668
C        0.76265272       2.65327543       7.60543201      -0.03296704       0.02423699       0.00239553
C        3.20393666       2.64632460       6.95329483      -0.04863031       0.04607404       0.02088012
C        3.09619482       3.56142867       1.77393407      -0.04604208       0.01051887       0.00461186
C        2.20003663       5.33729326       3.31116036      -0.01019016      -0.00736615       0.00712647
C        4.63126767       5.33712193       2.66053636       0.00864685       0.04556194       0.03375349
C        3.77151448       3.52920452       4.20962531      -0.05533513       0.05001156      -0.00016488
C        4.09065517       4.41976163       5.41745331      -0.05046840       0.04239787       0.02406378
C        3.41969506       4.44761968       2.98605417      -0.03250402       0.03211629       0.02003122
C        2.53860049       6.20517097       4.52940024      -0.03580648       0.01855811       0.00731358
C        4.96053221       6.22504200       3.87745829      -0.03330935       0.04451495       0.02589621
C        1.33320205       3.54164902       4.85926859      -0.02181322       0.00815283      -0.00317979
C        0.43939665       5.31759248       6.39391268      -0.00339504       0.00615471       0.00514672
C        2.87224992       5.30895414       5.74329165      -0.02553117       0.02678599       0.01228631
C        1.98662861       3.53771151       7.27723277      -0.02722124       0.02340584       0.01521361
C        2.30393532       4.43420785       8.49223286      -0.01993232       0.02405703       0.02985743
C        1.65635619       4.42774748       6.06902009      -0.02047520       0.01695466       0.00775620
C        0.75906087       6.20713518       7.60562633       0.02178549       0.00355657       0.01668463
C        3.18809226       6.20252173       6.96082811      -0.01404911       0.03582345       0.01966741
63
Lattice="6.131567977031611 0.030451229553642416 3.5752244732535927 0.0396279445138568 7.09808749897549 -0.0075911124420278454 -3.5226098392112393 -0.026388068474708277 6.162385717611401" Properties=species:S:1:pos:R:3:forces:R:3 spacegroup="F d -3 m" unit_cell=conventional niter=11 energy=-607.3925343238448 stress="2.173153574108382e-05 -3.854482333585914e-06 1.2098455709958463e-07 -3.854482333585914e-06 1.4445522270461731e-05 -1.4950353221997444e-06 1.2098455709958463e-07 -1.4950353221997444e-06 1.215655204693713e-05" pbc="T T T"
C       -0.03554462      -0.02529550      -0.04973042       0.00079969      -0.00269518      -0.00265043
C        1.46735330       1.83798498       0.91969431      -0.00210460       0.00007897       0.00047956
C        0.57976181       0.06280199       2.45704788      -0.00141028       0.00146761      -0.00072304
C        0.99016310       0.87758340       3.67131013      -0.00010596       0.00058259      -0.00010053
C       -0.18891219       1.39635462       1.50330292       0.00115597      -0.00049829       0.00009202
C       -0.42774824       2.56982233       2.72041467       0.00032376       0.00138145       0.00178209
C        1.89355455       2.68436629       2.10659025      -0.00041430      -0.00003408       0.00043352
C       -1.75970351      -0.03095260       3.07899092      -0.00008580      -0.00008077       0.00019578
C       -2.62040186       1.74844943       4.61664921      -0.00041923      -0.00016348      -0.00020076
C       -0.19192721       1.76185587       3.98942147       0.00027266       0.00050305       0.00111003
C       -1.12133919      -0.00985863       5.52358451      -0.00020713      -0.00018446      -0.00013868
C       -0.84257091       0.88382165       6.74950312      -0.00129611       0.00025789       0.00024753
C       -1.41961056       0.86736201       4.30003893      -0.00019936       0.00017606       0.00045219
C       -2.29721543       2.64703457       5.83632889      -0.00071195       0.00027667      -0.00006843
C        0.12310284       2.65335343       5.19631015      -0.00001996       0.00024927       0.00108771
C        0.02894084       3.54633611      -0.01903198       0.00006081       0.00021245      -0.00005816
C       -0.84045836       5.30833643       1.53369664      -0.00031961       0.00003575      -0.00037330
C        1.55570718       5.34423410       0.88680419      -0.00012317      -0.00001653      -0.00028411
C        0.70259683       3.55090395       2.44006038       0.00043363       0.00082499       0.00083123
C        1.01571871       4.43858518       3.65025411       0.00033138       0.00095196       0.00047916
C        0.36358255       4.43374823       1.21145787      -0.00004174       0.00049128       0.00017920
C       -0.51922432       6.20301680       2.75675795      -0.00070193       0.00029672      -0.00008579
C        1.84878157       6.26652662       2.08794387      -0.00099384       0.00086242      -0.00027601
C       -1.68700712       3.46585292       3.02802822       0.00066177      -0.00027584       0.00006356
C       -2.60346095       5.28319052       4.59739405       0.00019127      -0.00108373      -0.00114095
C       -0.19074057       5.30967159       3.97040536      -0.00027208       0.00018808      -0.00007140
C       -1.07865526       3.53384219       5.50831873      -0.00032902       0.00007421       0.00002722
C       -0.75352160       4.43097454       6.72603245      -0.00036210      -0.00027481       0.00002455
C       -1.38691267       4.39297210       4.27183285       0.00030016      -0.00021889      -0.00007945
C       -2.29131784       6.19839391       5.83439581       0.00091818      -0.00197575      -0.00175128
C        0.13182901       6.20167577       5.19256020      -0.00012354       0.00020231      -0.00038865
C        3.04095064       0.02737562       1.78730431      -0.00144997       0.00109453       0.00042672
C        2.20764174       1.77907422       3.32888052      -0.00059368       0.00055781       0.00030134
C        4.62550660       1.78889755       2.67629357       0.00089818      -0.00054274       0.00069909
C        3.73355028       0.00498492       4.22120722       0.00124772       0.00015634       0.00009367
C        4.08338610       0.84063635       5.43383916       0.00214572       0.00037280      -0.00003393
C        3.40535864       0.89683737       3.00166333       0.00002412       0.00054966       0.00064861
C        2.55573680       2.65483780       4.54109797       0.00051716       0.00037924       0.00073649
C        4.99514278       2.66414971       3.85463027       0.00140820      -0.00110225       0.00124349
C        1.31560001      -0.01192000       4.87625373       0.00042694       0.00019844      -0.00058598
C        0.42314259       1.76683744       6.41179141      -0.00026349      -0.00010584       0.00091076
C        2.89734042       1.76232433       5.74689793       0.00153953      -0.00021606       0.00000225
C        1.95540990      -0.00886760       7.29162482      -0.00067854      -0.00013153      -0.00091918
C        2.29376226       0.87823495       8.51321640       0.00021276      -0.00101083      -0.00080853
C        1.64089912       0.87529957       6.08307407       0.00049661      -0.00004344      -0.00039532
C        0.77870268       2.65085708       7.61431353       0.00017319      -0.00061749       0.00092785
C        3.21331631       2.64592394       6.95970517       0.00036166      -0.00018389      -0.00017913
C        3.10413981       3.56515960       1.77841193      -0.00003276      -0.00072094       0.00021023
C        2.21032535       5.34120295       3.31630007       0.00024968       0.00092049       0.00002193
C        4.62835739       5.33702738       2.66194396      -0.00084116      -0.00045676      -0.00063752
C        3.78032295       3.52828939       4.21752732       0.00126365      -0.00076781       0.00048009
C        4.10066601       4.42062333       5.42277042       0.00028562      -0.00033596      -0.00004743
C        3.42707289       4.44764712       2.98933034       0.00022300      -0.00059066       0.00007859
C        2.55569294       6.20483762       4.53647611       0.00084040       0.00071694      -0.00022781
C        4.96753505       6.22578054       3.88210607       0.00031488      -0.00080659      -0.00098541
C        1.34517358       3.54236446       4.86700647       0.00029470       0.00056251       0.00081967
C        0.45687099       5.31534767       6.40140941      -0.00084236       0.00027027      -0.00017425
C        2.88453313       5.30877593       5.75059127       0.00002459      -0.00001335      -0.00052028
C        1.99909095       3.53789157       7.28422212      -0.00020017      -0.00046288      -0.00013098
C        2.31696959       4.43466794       8.49816349      -0.00068448      -0.00020042      -0.00057336
C        1.67019537       4.42715264       6.07632328      -0.00034201       0.00038674       0.00024911
C        0.77373710       6.20595681       7.61273899      -0.00156586       0.00068604      -0.00011188
C        3.20020595       6.20114067       6.96835322      -0.00066142      -0.00015431      -0.00061329
63
Lattice="6.177126917321342 -1.6879490935138488e-12 3.5663658885320064 -9.088036410078913e-06 7.13272859981192 1.574094448569999e-05 -3.566364299904363 1.8176076010163804e-05 6.177124165737851" Properties=species:S:1:pos:R:3:forces:R:3 spacegroup="F d -3 m" unit_cell=conventional niter=11 energy=-609.43775794708 stress="1.1394816012098112e-05 -8.071558212642659e-07 -2.755595098023013e-07 -8.071558212642659e-07 1.1872099113180143e-05 1.3980349265989822e-06 -2.755595098023013e-07 1.3980349265989822e-06 1.1713004763454711e-05" pbc="T T T"
C       -0.00526940      -0.08143816      -0.09707898       0.00021401       0.00109136       0.00138375
C        1.65537869       1.83617320       0.86186650      -0.00001881       0.00015196      -0.00018633
C        0.69664656      -0.08129106       2.52243926      -0.00017077      -0.00015196       0.00007688
C        0.99320559       0.87049600       3.62933133      -0.00004714      -0.00056042      -0.00020462
C       -0.96414863       1.83632030       1.56374857       0.00130537      -0.00109136      -0.00050654
C       -0.54493005       2.64653553       2.74134049       0.00022649      -0.00021833      -0.00012135
C        1.88120275       2.64649034       2.09127512       0.00015625      -0.00015364      -0.00055690
C       -1.75974523      -0.01186549       3.08080756       0.00007564      -0.00010030       0.00014127
C       -2.65562037       1.76676581       4.63250882       0.00016017       0.00010030      -0.00000513
C       -0.21938983       1.76680123       3.97017008      -0.00032624      -0.00038256      -0.00037252
C       -1.11523214      -0.01190091       5.52181448      -0.00048574       0.00038256      -0.00009627
C       -0.80410945       0.88440431       6.74237229      -0.00020078       0.00056042       0.00006149
C       -1.43749719       0.87745016       4.30132506       0.00008514       0.00000000       0.00004915
C       -2.33013348       2.64646422       5.86137305       0.00032935       0.00052757      -0.00041904
C        0.10930326       2.66004856       5.18737499      -0.00030890      -0.00001007       0.00022925
C        0.02015263       3.54793023      -0.00206596       0.00016806       0.00008452      -0.00001879
C       -0.86916302       5.33968051       1.53827392       0.00006776      -0.00008452       0.00015493
C        1.56054216       5.33964768       0.88723745      -0.00059727       0.00015949       0.00009691
C        0.67119109       3.54796306       2.42763869      -0.00021471      -0.00015949      -0.00056570
C        0.99815242       4.43774689       3.64784307      -0.00012737       0.00035299      -0.00008516
C        0.34568042       4.44380537       1.21277085       0.00008514       0.00000000       0.00004915
C       -0.53278323       6.24116470       2.74827111      -0.00019822      -0.00052757       0.00049474
C        1.87424860       6.24112041       2.10332007      -0.00040417       0.00015364       0.00041377
C       -1.76786493       3.55773463       3.08744080       0.00004564      -0.00008626      -0.00007325
C       -2.65394475       5.32989429       4.62217608      -0.00004062       0.00008626       0.00007615
C       -0.22105923       5.32993870       3.98043820      -0.00032016      -0.00065240       0.00056848
C       -1.10718347       3.55769022       5.51525041       0.00033224       0.00065240      -0.00056151
C       -0.78561348       4.44988203       6.73741624      -0.00013744      -0.00035299      -0.00006772
C       -1.43751382       4.44381446       4.30132596       0.00022861       0.00000000       0.00013199
C       -2.34220898       6.24109339       5.85431891       0.00000815       0.00021833       0.00025682
C        0.10323569       6.22758036       5.19788433       0.00004409       0.00001007      -0.00038214
C        3.10309973      -0.01190993       1.77782307      -0.00022372       0.00016012       0.00005573
C        2.21374873       1.76679207       3.31822418      -0.00006360      -0.00016012      -0.00022161
C        4.65474715       1.76676657       2.67369656      -0.00033908      -0.00041257       0.00028062
C        3.76542165      -0.01188443       4.21405352       0.00007349       0.00041257      -0.00043396
C        4.10622905       0.88444758       5.42664452      -0.00055140       0.00036429       0.00033082
C        3.43424564       0.87744107       2.99594432       0.00020933      -0.00000000       0.00012086
C        2.53767045       2.66006988       4.53670884       0.00023627      -0.00032062      -0.00023380
C        4.98725401       2.64649749       3.90066454      -0.00045245       0.00056220       0.00015942
C        1.32672261      -0.01557160       4.87404673       0.00017258      -0.00012511       0.00028735
C        0.44060422       1.77047192       6.40884880       0.00033514       0.00012511       0.00000578
C        2.86146884       1.77050622       5.76018967       0.00028251      -0.00065496      -0.00014792
C        1.97539963      -0.01560591       7.29490655       0.00001315       0.00065496       0.00031862
C        2.30892117       0.87045274       8.53967309       0.00001079      -0.00036429      -0.00064294
C        1.65103887       0.87745016       6.08449219       0.00046935       0.00000000       0.00027098
C        0.76442566       2.66003321       7.63234948      -0.00019371       0.00018908      -0.00033017
C        3.19279654       2.66004992       6.98168008       0.00005851      -0.00010718      -0.00042735
C        3.11335190       3.55768698       1.77951402       0.00031642       0.00016257       0.00003821
C        2.22033014       5.32992376       3.32627309       0.00019130      -0.00016257       0.00025492
C        4.64813988       5.32987458       2.66558466      -0.00017965       0.00026936       0.00065256
C        3.75508381       3.55773617       4.21240314       0.00047531      -0.00026936      -0.00048186
C        4.08772860       4.44991404       5.43161228      -0.00008758      -0.00039935      -0.00017432
C        3.43421648       4.44380537       2.99593798       0.00046935       0.00000000       0.00027098
C        2.54820691       6.22759571       4.54274972      -0.00038279      -0.00018908      -0.00000267
C        4.99425143       6.24111325       3.88854465      -0.00008816      -0.00056220      -0.00047154
C        1.32443425       3.55149088       4.86557090      -0.00006252       0.00029193       0.00030100
C        0.43211067       5.33613804       6.41112068       0.00022942      -0.00029193      -0.00020464
C        2.87001252       5.33616610       5.75787853      -0.00053701      -0.00064478       0.00043449
C        1.97766087       3.55146282       7.30347691       0.00010777       0.00064478      -0.00068231
C        2.30396406       4.43771487       8.52118309      -0.00019476       0.00039935       0.00001132
C        1.65105553       4.44381446       6.08451230       0.00019711      -0.00000000       0.00011380
C        0.75392588       6.22755904       7.62624508      -0.00008434       0.00032062       0.00032152
C        3.19889612       6.22757900       6.97111529      -0.00034084       0.00010718       0.00026435
63
Lattice="6.162008744730659 -0.03046091381616544 3.522464173936017 -0.013252408867842808 7.0980949285186785 -0.0381124212477477 -3.5754899334103634 -0.026380120566359765 6.131863959888284" Properties=species:S:1:pos:R:3:forces:R:3 spacegroup="F d -3 m" unit_cell=conventional niter=11 energy=-607.3925353867786 stress="1.4251184545000959e-05 2.756271752420829e-06 3.5040029962473947e-06 2.756271752420829e-06 1.415963565380548e-05 2.1282917257936724e-06 3.5040029962473947e-06 2.1282917257936724e-06 1.817519350379583e-05" pbc="T T T"
C        0.32454993       0.34323681       0.58371472      -0.00128756      -0.00120382      -0.00213343
C        1.53477848       1.67699520       0.77276254      -0.00065566      -0.00026466      -0.00019056
C        0.64720226      -0.09815725       2.31008966      -0.00044193       0.00016280      -0.00056076
C        0.96550836       0.82961695       3.52659108      -0.00017527       0.00023053      -0.00026962
C       -0.94382497       1.76519936       1.49335905      -0.00258055       0.00370800       0.00279175
C       -0.56461462       2.61317596       2.69145528      -0.00103789       0.00244180       0.00222033
C        1.83638152       2.57136328       2.01819451      -0.00036347      -0.00014586       0.00005635
C       -1.77047994      -0.03496265       3.05346818      -0.00047698       0.00011023      -0.00030485
C       -2.67179378       1.74447173       4.56764052       0.00018577      -0.00025865       0.00030904
C       -0.23552496       1.72333493       3.89817161      -0.00033794       0.00032072       0.00054942
C       -1.09938957      -0.04835449       5.47018744       0.00067279      -0.00076736      -0.00033949
C       -0.78386144       0.83590169       6.65295216      -0.00072630      -0.00055417       0.00015636
C       -1.44427361       0.84613808       4.25166523       0.00013397      -0.00041576      -0.00019401
C       -2.34386307       2.60854404       5.76493533      -0.00042314      -0.00018950      -0.00009991
C        0.09114338       2.60990225       5.11085545      -0.00059479      -0.00035250       0.00056078
C        0.01181188       3.52962098      -0.03355180      -0.00054486      -0.00002552      -0.00018730
C       -0.89823484       5.29158962       1.49574632       0.00040247       0.00017475      -0.00006630
C        1.56829571       5.28701607       0.84962099       0.00074127      -0.00063040      -0.00045810
C        0.64964664       3.49367813       2.36500943      -0.00017591       0.00064478       0.00026877
C        0.97647174       4.38055897       3.57742175      -0.00002702       0.00078305      -0.00042263
C        0.33475080       4.40418690       1.17030457       0.00022435      -0.00023500      -0.00035054
C       -0.56587910       6.16451198       2.68537676      -0.00026587       0.00012505      -0.00037232
C        1.87496587       6.15355631       2.04772818      -0.00019993       0.00049856      -0.00075534
C       -1.79196300       3.52840312       3.03965866      -0.00081812       0.00117563       0.00088515
C       -2.69283682       5.34579497       4.61808226       0.00065175      -0.00079160      -0.00053777
C       -0.24066347       5.27771790       3.90470143      -0.00004087       0.00006794      -0.00027431
C       -1.12857124       3.50190237       5.44260279      -0.00018341      -0.00021712      -0.00002743
C       -0.80260344       4.37297232       6.64751694       0.00070982      -0.00088057       0.00009274
C       -1.46563993       4.41863686       4.25601475       0.00032666      -0.00011593       0.00005474
C       -2.32955732       6.24180581       5.86244598       0.00130766      -0.00216576      -0.00174582
C        0.09002053       6.15822026       5.10144687       0.00101281      -0.00027459      -0.00043205
C        3.10380569      -0.03922244       1.74669288      -0.00038568      -0.00049123      -0.00078990
C        2.18534791       1.71244971       3.23907781       0.00002269      -0.00071371      -0.00081102
C        4.63950295       1.73488892       2.62198792       0.00075966      -0.00036720       0.00127094
C        3.74753683      -0.04904333       4.16691857       0.00130368       0.00072084       0.00032867
C        4.06110939       0.83523004       5.36095046      -0.00057866       0.00134590       0.00076764
C        3.41924989       0.84301559       2.94753540       0.00068050      -0.00054212      -0.00023310
C        2.50799668       2.60558682       4.45666506      -0.00063966      -0.00049473      -0.00094057
C        4.94957667       2.61216459       3.82208000      -0.00077455       0.00095413       0.00110692
C        1.30591195      -0.05336615       4.79163315       0.00091566       0.00019766      -0.00012028
C        0.42234840       1.72543135       6.33230871      -0.00058004      -0.00055720       0.00098077
C        2.83399355       1.72235325       5.67870247      -0.00119602       0.00007723       0.00023599
C        1.96720680      -0.04880869       7.26685534       0.00068784      -0.00026730       0.00105142
C        2.28913037       0.87286445       8.45054941       0.00095289      -0.00091831       0.00195241
C        1.63011584       0.83819842       6.01061018      -0.00013689      -0.00019131       0.00104901
C        0.73488243       2.60675425       7.53805145       0.00019382      -0.00105341       0.00100307
C        3.16317851       2.61045545       6.88025897      -0.00076680      -0.00013850      -0.00002716
C        3.08095505       3.49672006       1.71716831       0.00053583      -0.00056200       0.00053760
C        2.19601573       5.27276601       3.26022678       0.00026825       0.00113939      -0.00048852
C        4.64645011       5.30967793       2.62626980       0.00110481       0.00056664       0.00032921
C        3.72326884       3.50090382       4.13843249      -0.00083344       0.00080239      -0.00039201
C        4.04639569       4.37688980       5.35048195      -0.00051761       0.00035987      -0.00045877
C        3.40615822       4.39028319       2.93441454       0.00044722       0.00097691       0.00003730
C        2.51185672       6.16070283       4.46024169       0.00110642       0.00077177      -0.00057759
C        4.93961078       6.17382528       3.85978266       0.00201924       0.00121439       0.00010544
C        1.30054933       3.49622409       4.78796434      -0.00066337      -0.00034306      -0.00077912
C        0.41585953       5.26922417       6.32447260       0.00099334      -0.00084361      -0.00040061
C        2.83617950       5.27370427       5.68220334      -0.00020226       0.00010021      -0.00077826
C        1.95074871       3.50284269       7.21581445      -0.00053879      -0.00057287      -0.00019536
C        2.27490980       4.39099244       8.43295023       0.00008629      -0.00027298      -0.00047287
C        1.62566785       4.38444800       6.00130423       0.00005169      -0.00081911      -0.00091598
C        0.73891246       6.15675081       7.53581478       0.00067561      -0.00058108      -0.00028091
C        3.16226069       6.16569423       6.89601339      -0.00000355      -0.00045266      -0.00031726
63
Lattice="6.176984638695755 1.574324759194897e-15 3.5662837439311783 -7.212517708609004e-16 7.132567487862355 -1.4839204281027234e-15 -3.5662837439311756 8.45868676195693e-16 6.176984638695757" Properties=species:S:1:pos:R:3:forces:R:3 spacegroup="F d -3 m" unit_cell=conventional niter=11 energy=-609.4377283721874 stress="-1.7714213435388128e-05 9.783562686806634e-11 1.3364700426016477e-10 9.783562686806634e-11 -1.7713981952907612e-05 3.6512812992304584e-10 1.3364700426016477e-10 3.6512812992304584e-10 -1.7713750469365242e-05" pbc="T T T"
C        0.36482899       0.92976373       1.28423280       0.00191108       0.00522117       0.00713225
C        1.54263647       1.74058701       0.86585695       0.00154811       0.00283209       0.00298277
C        0.66161091      -0.02146412       2.39183799       0.00103662       0.00180910       0.00386871
C        0.99513265       0.86468634       3.63655809       0.00057996      -0.00043654       0.00216445
C       -0.86437013       1.74058701       1.51081243       0.00015068       0.00283209       0.00335721
C       -0.55254050       2.65178536       2.74300858      -0.00117030       0.00158449       0.00115393
C        1.88868216       2.65178536       2.08888494       0.00159048       0.00158449       0.00041419
C       -1.76898995      -0.02830384       3.06398047       0.00000000       0.00000004       0.00000008
C       -2.67360977       1.74058701       4.61714852      -0.00015051       0.00283207      -0.00335731
C       -0.22824475       1.75426103       3.96046124      -0.00102163      -0.00079501       0.00017951
C       -1.13578199      -0.03514356       5.50501381       0.00386878      -0.00180900      -0.00103677
C       -0.79478109       0.86106170       6.71747912      -0.00048865      -0.00099683       0.00086887
C       -1.44669920       0.86106170       4.28448760      -0.00085778      -0.00099685      -0.00050799
C       -2.33723590       2.64213510       5.82694242      -0.00136167       0.00001125       0.00036483
C        0.10064241       2.64571249       5.17371489      -0.00076310      -0.00055870       0.00020434
C        0.01415192       3.53797990      -0.02451184       0.00000002       0.00000007       0.00000006
C       -0.87621688       5.33537280       1.50397271      -0.00298268      -0.00283226       0.00154815
C        1.54947619       5.33537280       0.85401021       0.00335715      -0.00283226      -0.00015060
C        0.66661595       3.54398242       2.41051705      -0.00029099       0.00066627      -0.00108600
C        0.99290983       4.43024732       3.62826239      -0.00020450       0.00055851      -0.00076319
C        0.33968230       4.43382470       1.19038408      -0.00036487      -0.00001104      -0.00136172
C       -0.55085440       6.21489811       2.73283889      -0.00086891       0.00099678      -0.00048867
C        1.88213711       6.21489811       2.08092078       0.00050816       0.00099678      -0.00085765
C       -1.76898995       3.53797990       3.06398047      -0.00000009       0.00000025       0.00000024
C       -2.66176303       5.33537280       4.62398824       0.00298281      -0.00283222      -0.00154824
C       -0.22224223       5.32169878       3.95006457      -0.00035558       0.00079496      -0.00097417
C       -1.11710293       3.53197738       5.50000877      -0.00108599      -0.00066587       0.00029094
C       -0.78461140       4.42417445       6.71916522       0.00115394      -0.00158467       0.00117027
C       -1.43873504       4.42417445       4.27794255       0.00041427      -0.00158466      -0.00159063
C       -2.24338719       6.14619608       5.80179573       0.00713223      -0.00522121      -0.00191114
C        0.10893811       6.21127347       5.17149206       0.00216453       0.00043651      -0.00058013
C        3.10264424      -0.02830384       1.75863003       0.00000004       0.00000004       0.00000007
C        2.21656014       1.75426103       3.30537775       0.00097451      -0.00079501      -0.00035536
C        4.66265201       1.74058701       2.65140310      -0.00154831       0.00283207      -0.00298277
C        3.77478672      -0.03514356       4.18923089      -0.00386884      -0.00180900       0.00103652
C        4.08570394       0.86106170       5.40975709       0.00085761      -0.00099683       0.00050814
C        3.43378582       0.86106170       2.97676558       0.00048886      -0.00099685      -0.00086882
C        2.53836232       2.64571249       4.52052981       0.00076303      -0.00055870      -0.00020459
C        4.97624064       2.64213510       3.86730228       0.00136166       0.00001125      -0.00036489
C        1.31950237      -0.02830384       4.84712234       0.00000009       0.00000004       0.00000034
C        0.42244459       1.75426103       6.38886695      -0.00097414      -0.00079502       0.00035552
C        2.86724949       1.75426103       5.73378345       0.00102139      -0.00079502      -0.00017918
C        1.97739383      -0.02146412       7.30240670      -0.00103667       0.00180907      -0.00386889
C        2.27417575       0.92976373       8.41001190      -0.00191109       0.00522112      -0.00713230
C        1.64387208       0.86468634       6.05768661      -0.00058003      -0.00043655      -0.00216469
C        0.75032257       2.65178536       7.60535976      -0.00159062       0.00158448      -0.00041431
C        3.19154523       2.65178536       6.95123612       0.00117037       0.00158448      -0.00115411
C        3.10264424       3.53797990       1.75863003       0.00000020       0.00000025       0.00000016
C        2.20616347       5.32169878       3.29937523      -0.00017915       0.00079496      -0.00102144
C        4.65581229       5.33537280       2.66324985      -0.00335731      -0.00283222       0.00015059
C        3.75610766       3.53197738       4.19423593       0.00108597      -0.00066587      -0.00029103
C        4.07773978       4.42417445       5.41630214      -0.00041421      -0.00158467       0.00159045
C        3.42361614       4.42417445       2.97507948      -0.00115408      -0.00158466      -0.00117040
C        2.53006663       6.21127347       4.52275263      -0.00216460       0.00043651       0.00057986
C        4.88239192       6.14619608       3.89244897      -0.00713226      -0.00522121       0.00191102
C        1.31950237       3.53797990       4.84712234       0.00000009       0.00000025       0.00000034
C        0.43284126       5.32169878       6.39486947       0.00017955       0.00079493       0.00102157
C        2.86124697       5.32169878       5.74418012       0.00035529       0.00079493       0.00097448
C        1.97238879       3.54398242       7.28372765       0.00029096       0.00066628       0.00108589
C        2.29932243       4.43382470       8.50386062       0.00036485      -0.00001100       0.00136164
C        1.64609491       4.43024732       6.06598230       0.00020444       0.00055853       0.00076297
C        0.75686762       6.21489811       7.61332392      -0.00050792       0.00099679       0.00085775
C        3.18985914       6.21489811       6.96140580       0.00086874       0.00099679       0.00048887
